time,e_xx,el_strain_xx,euler_angle_1,euler_angle_2,euler_angle_3,fp_xx,stress_xx,stress_yy,tot_strain_xx,vonmises
0,0,0,0,0,0,0,0,0,0,0
0.0003125,3.1373531064649e-05,0,2.7243079941366,0.36478073578294,3.1403136649169,1,4.5776194586099,-7.4091633617725e-09,3.1372554271716e-05,3.9959822461604
0.000625,6.2748061234992e-05,0,2.7241190643465,0.36478073578297,3.1403136649169,1,9.1558587043965,-3.2155688047522e-08,6.2744154176529e-05,7.9925333204375
0.0009375,9.4123590464048e-05,0,2.7239301450088,0.36478073578293,3.1403136649169,1,13.734717791204,-7.2424186566288e-08,9.4114799728876e-05,11.989653279601
0.00125,0.00012550011870508,0,2.7237412361192,0.36478073578286,3.1403136649169,1,18.314196771138,-1.2915824820041e-07,0.00012548449094341,15.987342181214
0.0015625,0.0001568776459116,0,2.7235523376738,0.36478073578302,3.1403136649169,1,22.894295697085,-2.0226020230919e-07,0.00015685322783502,19.985600082645
0.001875,0.00018825617203737,0,2.7233634496687,0.36478073578294,3.1403136649169,1,27.475014621952,-2.9165734649714e-07,0.00018822101041882,23.984427041309
0.0021875,0.0002196356970364,0,2.7231745720997,0.36478073578291,3.1403136649169,1,32.056353600877,-3.938876179816e-07,0.00021958783871018,27.98382311369
0.0025,0.00025101622086294,0,2.7229857049629,0.36478073578292,3.1403136649169,1,36.638312682504,-5.1565096805296e-07,0.00025095371272466,31.983788359188
0.0028125,0.00028239774347148,0,2.722796848254,0.36478073578288,3.1403136649169,1,41.220891922359,-6.5313517851188e-07,0.00028231863247805,35.984322834335
0.003125,0.00031378026481675,0,2.7226080019693,0.36478073578289,3.1403136649169,1,45.804091373774,-8.0563734630599e-07,0.0003136825979864,39.98542659636
0.0034375,0.00034516378485375,0,2.7224191661047,0.36478073578303,3.1403136649169,1,50.387911087645,-9.7607712193663e-07,0.00034504560926593,43.987099703445
0.00375,0.00037654830353767,0,2.722230340656,0.36478073578298,3.140313664917,1,54.972351118625,-1.160811421428e-06,0.00037640766633312,47.98934221147
0.0040625,0.00040793382082398,0,2.7220415256194,0.36478073578309,3.1403136649171,1.0000000000001,59.557411515593,-1.3637102292909e-06,0.00040776876920466,51.992154177649
0.004375,0.00043932033666838,0,2.7218527209904,0.36478073578328,3.1403136649173,1.0000000000002,64.143092331305,-1.5800037457947e-06,0.00043912891789744,55.995535655256
0.0046875,0.00047070785102676,0,2.7216639267648,0.36478073578363,3.1403136649178,1.0000000000004,68.72939360889,-1.8153314078143e-06,0.00047048811242859,59.999486697949
0.005,0.00050209636385531,0,2.721475142938,0.36478073578434,3.1403136649187,1.0000000000008,73.316315393096,-2.0649958878776e-06,0.00050184635281546,64.004007352054
0.0053125,0.00053348587511041,0,2.7212863695049,0.36478073578553,3.1403136649203,1.0000000000015,77.903857716801,-2.3306288576797e-06,0.00053320363907558,68.009097658863
0.005625,0.00056487638474868,0,2.7210976064596,0.36478073578802,3.1403136649232,1.0000000000028,82.49202060195,-2.6115162741791e-06,0.00056455997122673,72.014757648094
0.0059375,0.00059626789272697,0,2.7209088537951,0.36478073579208,3.1403136649282,1.0000000000049,87.0808040494,-2.9108043416016e-06,0.00059591534928689,76.02098733426
0.00625,0.00062766039900238,0,2.7207201115029,0.36478073579893,3.1403136649365,1.0000000000085,91.670208035776,-3.2264481979845e-06,0.00062726977327425,80.027786706286
0.00640625,0.00064335702648706,0,2.7206257442331,0.36478073580316,3.1403136649419,1.0000000000109,93.965142708461,-3.3971243504902e-06,0.00064294662751031,82.03140001317
0.00671875,0.00067475103012944,0,2.7204370174894,0.36478073581709,3.140313664959,1.0000000000183,98.555477413608,-3.7234588615432e-06,0.00067429962042412,86.039053845288
0.00703125,0.00070614603196116,0,2.7202483010749,0.36478073583906,3.1403136649861,1.0000000000301,103.14643232114,-4.101866984212e-06,0.00070565165931033,90.047277125761
0.00734375,0.00073754203194185,0,2.7200595949729,0.36478073587303,3.140313665028,1.0000000000483,107.7380072771,-4.44227175064e-06,0.00073700274418937,94.05606965562
0.00765625,0.00076893903002938,0,2.7198708991604,0.36478073592462,3.1403136650915,1.0000000000759,112.33020184102,-4.8409320647513e-06,0.00076835287508022,98.065431141405
0.00796875,0.00080033702618214,0,2.7196822135948,0.36478073600141,3.1403136651863,1.000000000117,116.92301550126,-5.2401788217661e-06,0.00079970205200229,102.07536109747
0.00828125,0.00083173602035876,0,2.7194935382237,0.36478073611417,3.1403136653256,1.0000000001775,121.51644746655,-5.6614210811747e-06,0.00083105027497532,106.08585886013
0.00859375,0.00086313601251813,0,2.7193048729765,0.36478073627777,3.1403136655274,1.0000000002651,126.11049666468,-6.0957948398854e-06,0.00086239754401927,110.09692349392
0.00890625,0.00089453700261944,0,2.7191162177596,0.36478073651149,3.140313665816,1.0000000003904,130.70516162203,-6.5503111766559e-06,0.00089374385915442,114.10855372553
0.00921875,0.00092593899062212,0,2.718927572449,0.36478073684139,3.1403136662237,1.0000000005673,135.30044036822,-7.0186209039378e-06,0.00092508922040137,118.12074783502
0.00953125,0.00095734197648596,0,2.7187389368836,0.3647807373019,3.1403136667928,1.0000000008141,139.89633028045,-7.5045396353643e-06,0.0009564336277811,122.13350353988
0.00984375,0.00098874596017109,0,2.7185503108533,0.36478073793814,3.140313667579,1.000000001155,144.49282792291,-8.0023724233877e-06,0.00098777708131503,126.14681783744
0.01015625,0.001020150941638,0,2.7183616940882,0.36478073880766,3.140313668654,1.0000000016211,149.08992882289,-8.5148240577263e-06,0.001019119581025,130.16068682399
0.01046875,0.0010515569208476,0,2.7181730862401,0.36478073998538,3.1403136701102,1.0000000022522,153.68762721506,-9.0502713038363e-06,0.0010504611269336,134.17510546878
0.01078125,0.0010829638977612,0,2.7179844868697,0.36478074156583,3.1403136720652,1.0000000030992,158.28591565719,-9.5952560674836e-06,0.0010818017190636,138.19006725298
0.01109375,0.0011143718723413,0,2.7177958953516,0.36478074366932,3.1403136746677,1.0000000042266,162.88478393551,-1.0160681465177e-05,0.0011131413574399,142.20556325143
0.01140625,0.001145780844552,0,2.717607310944,0.36478074644679,3.1403136781049,1.0000000057152,167.48421848284,-1.0743389686181e-05,0.0011444800420896,146.22158159525
0.01171875,0.0011771908143523,0,2.7174187330107,0.36478075008663,3.1403136826105,1.000000007666,172.08420865361,-1.134507723081e-05,0.0011758177730326,150.23811297064
0.01203125,0.0012086017817104,0,2.7172301603254,0.36478075482275,3.1403136884746,1.0000000102044,176.6847355413,-1.1963916141524e-05,0.0012071545503015,154.25514082693
0.01234375,0.0012400137465901,0,2.7170415915601,0.36478076094391,3.1403136960555,1.0000000134853,181.28577575488,-1.2612303695489e-05,0.0012384903739239,158.27264470015
0.01265625,0.0012714267089585,0,2.7168530250764,0.36478076880433,3.1403137057927,1.0000000176986,185.88730145162,-1.3249710232085e-05,0.0012698252439314,162.29060018244
0.01296875,0.0013028406687838,0,2.716664458872,0.36478077883697,3.1403137182236,1.0000000230763,190.48927866928,-1.3916311417112e-05,0.001301159160358,166.30897757409
0.01328125,0.0013342556260357,0,2.7164758905105,0.36478079156771,3.1403137340008,1.0000000299006,195.09166616184,-1.4567174154766e-05,0.0013324921232403,170.3277407232
0.01359375,0.0013656715806861,0,2.7162873170548,0.36478080763238,3.1403137539138,1.0000000385125,199.69441394923,-1.5279928339245e-05,0.0013638241326185,174.34684593206
0.01390625,0.0013970885327095,0,2.7160987349585,0.36478082779688,3.1403137789135,1.0000000493229,204.29746193135,-1.5969202291297e-05,0.0013951551885371,178.36624050056
0.01421875,0.0014285064820829,0,2.7159101399802,0.36478085297934,3.1403138101394,1.0000000628244,208.90073788694,-1.673076885985e-05,0.0014264852910455,182.38586126543
0.01453125,0.001459925428787,0,2.7157215270471,0.36478088427591,3.1403138489521,1.0000000796054,213.50415568814,-1.7444383803813e-05,0.0014578144401991,186.40563269931
0.01484375,0.0014913453728065,0,2.7155328901334,0.36478092299,3.1403138969691,1.0000001003657,218.10761270202,-1.8200855094055e-05,0.0014891426360604,190.42546499701
0.01515625,0.0015227663141303,0,2.7153442220923,0.36478097066538,3.1403139561054,1.0000001259345,222.71098734257,-1.899171003638e-05,0.0015204698786999,194.44525166769
0.01546875,0.0015541882527532,0,2.7151555145009,0.36478102912427,3.1403140286204,1.0000001572912,227.31413603929,-1.976557613363e-05,0.0015517961681979,198.4648669271
0.01578125,0.0015856111886759,0,2.7149667574435,0.36478110050926,3.1403141171686,1.0000001955875,231.91688975013,-2.0589040070608e-05,0.0015831215046463,202.48416278017
0.01609375,0.0016170351219069,0,2.7147779393,0.36478118733085,3.1403142248578,1.0000002421744,236.51905029157,-2.1424081320618e-05,0.00161444588815,206.50296561674
0.01640625,0.0016484600524627,0,2.714589046504,0.36478129252015,3.1403143553132,1.0000002986301,241.12038600032,-2.2231484634395e-05,0.0016457693188294,210.52107249949
0.01671875,0.00167988598037,0,2.7144000632601,0.36478141948852,3.1403145127475,1.0000003667935,245.7206268798,-2.3081181542789e-05,0.0016770917968232,214.5382470058
0.01703125,0.0017113129056665,0,2.7142109712422,0.36478157219302,3.1403147020387,1.0000004487996,250.31945940139,-2.3957275036011e-05,0.0017084133222902,218.554214508
0.01734375,0.0017427408284031,0,2.7140217492637,0.36478175520731,3.1403149288146,1.0000005471198,254.91652052279,-2.4870815086655e-05,0.0017397338954138,222.56865703065
0.01765625,0.0017741697486456,0,2.7138323728933,0.36478197380244,3.1403151995435,1.0000006646064,259.51139121983,-2.5737013639147e-05,0.0017710535164046,226.58120747881
0.01796875,0.0018055996664765,0,2.7136428140624,0.36478223403187,3.1403155216322,1.0000008045414,264.10358910448,-2.6673634872181e-05,0.001802372185505,230.59144342634
0.01828125,0.0018370305819982,0,2.7134530406359,0.36478254282497,3.1403159035291,1.0000009706897,268.69256079042,-2.7574632138212e-05,0.0018336899029933,234.59888006599
0.01859375,0.0018684624953344,0,2.7132630159117,0.36478290808893,3.1403163548319,1.0000011673583,273.27767301653,-2.852091783433e-05,0.001865006669189,238.60296278441
0.01890625,0.0018998954066345,0,2.7130726981377,0.36478333881462,3.140316886399,1.0000013994587,277.85820344576,-2.9514165471343e-05,0.0018963224844585,242.60305887511
0.01921875,0.0019313293160754,0,2.7128820399645,0.36478384519104,3.1403175104606,1.0000016725762,282.43333057265,-3.0453963625169e-05,0.0019276373492208,246.59844868184
0.01953125,0.0019627642238656,0,2.7126909878881,0.36478443872468,3.1403182407284,1.0000019930431,287.00212268334,-3.1423437977835e-05,0.0019589512639546,250.58831617063
0.01984375,0.0019942001302491,0,2.7124994816373,0.36478513236139,3.1403190924988,1.0000023680169,291.56352644142,-3.2445871920729e-05,0.0019902642292054,254.57173872883
0.02015625,0.0020256370355098,0,2.7123074536058,0.36478594061232,3.1403200827448,1.0000028055634,296.11635468579,-3.3439821264707e-05,0.0020215762455943,258.54767644035
0.02046875,0.0020570749399748,0,2.7121148282164,0.36478687967852,3.1403212301903,1.0000033147428,300.65927344807,-3.4473850674074e-05,0.0020528873138251,262.51496093666
0.02078125,0.002088513844021,0,2.7119215213451,0.36478796757143,3.1403225553589,1.0000039057003,305.19078880815,-3.5534427706765e-05,0.0020841974346956,266.47228368986
0.02109375,0.0021199537480778,0,2.7117274397256,0.36478922422788,3.1403240805886,1.0000045897574,309.70923327099,-3.6565046947048e-05,0.0021155066091054,270.41818412234
0.02140625,0.0021513946526351,0,2.7115324804503,0.36479067161081,3.1403258300003,1.0000053795047,314.21275195074,-3.7621382884611e-05,0.0021468148380679,274.351037647
0.02171875,0.0021828365582465,0,2.7113365305011,0.36479233379404,3.1403278294076,1.0000062888938,318.6992891533,-3.8634148604338e-05,0.00217812212272,278.26904372555
0.02203125,0.0022142794655364,0,2.7111394663826,0.36479423702135,3.1403301061539,1.0000073333253,323.16657506062,-3.9744727996345e-05,0.0022094284643338,282.17021450718
0.02234375,0.0022457233752052,0,2.7109411539382,0.36479640973504,3.1403326888598,1.0000085297315,327.6121137959,-4.0810527099291e-05,0.0022407338643277,286.05236397482
0.02265625,0.0022771682880354,0,2.7107414482757,0.36479888256166,3.1403356070635,1.0000098966502,332.03317216267,-4.189264240434e-05,0.0022720383242773,289.91309851998
0.02296875,0.0023086142048968,0,2.7105401939364,0.3648016882511,3.1403388907371,1.0000114542858,336.42677070688,-4.2969414956354e-05,0.0023033418459265,293.74980889978
0.02328125,0.0023400611267525,0,2.7103372253284,0.36480486155462,3.1403425696584,1.0000132245545,340.78967693683,-4.4058469209145e-05,0.0023346444311979,297.5596644372
0.02359375,0.0023715090546603,0,2.710132367453,0.36480843903393,3.1403466726234,1.0000152311079,345.11840173781,-4.5155439704889e-05,0.0023659460821992,301.3396098673
0.02390625,0.0024029579897829,0,2.7099254369664,0.3648124587943,3.1403512264845,1.0000174993318,349.40919951109,-4.6214092524916e-05,0.0023972468012362,305.08636548844
0.02421875,0.0024344079333856,0,2.7097162436556,0.36481696012851,3.1403562550037,1.0000200563144,353.65807271014,-4.7308550283339e-05,0.0024285465908138,308.7964313213
0.02453125,0.0024658588868408,0,2.709504592322,0.36482198307046,3.1403617775177,1.0000229307785,357.86078190508,-4.831069050593e-05,0.0024598454536414,312.46609570583
0.02484375,0.002497310851628,0,2.7092902850913,0.36482756785207,3.1403678074216,1.0000261529747,362.01286123502,-4.937214065908e-05,0.0024911433926338,316.09144929974
0.02515625,0.0025287638293308,0,2.7090731242128,0.36483375426455,3.1403743504843,1.0000297545297,366.10964101071,-5.043816353512e-05,0.0025224404109058,319.66840451995
0.02546875,0.002560217821634,0,2.7088529152387,0.36484058092909,3.1403814030285,1.0000337682476,370.14627691324,-5.1427964844941e-05,0.0025537365117664,323.19272132746
0.02578125,0.0025916728303235,0,2.7086294706615,0.36484808448611,3.1403889500177,1.0000382278614,374.11778644167,-5.2429241064014e-05,0.0025850316987112,326.66003936169
0.02609375,0.0026231288572677,0,2.7084026138453,0.36485629872191,3.1403969631111,1.000043167735,378.01909312588,-5.3400868744389e-05,0.0026163259753981,330.06591645643
0.02640625,0.0026545859044134,0,2.7081721831853,0.36486525365501,3.1404053987633,1.0000486225167,381.84507756859,-5.429711415022e-05,0.0026476193456316,333.40587347992
0.02671875,0.0026860439737704,0,2.7079380364504,0.36487497460788,3.1404141964585,1.0000546267482,385.59063506383,-5.5219756415373e-05,0.002678911813334,336.67544493923
0.02703125,0.0027175030673949,0,2.7077000549873,0.3648854813058,3.1404232771806,1.000061214435,389.25073924253,-5.6086191309671e-05,0.002710203382515,339.87023443568
0.02734375,0.0027489631873704,0,2.7074581478318,0.36489678703254,3.140432542227,1.0000684185871,392.82050972764,-5.6839146906642e-05,0.0027414940572341,342.98597406428
0.02765625,0.0027804243357869,0,2.7072122553266,0.364908897892,3.1404418724705,1.0000762707414,396.2952825611,-5.7717274518097e-05,0.0027727838415622,346.01858626668
0.02796875,0.002811886514717,0,2.7069623522818,0.36492181220984,3.1404511281677,1.0000848004777,399.67068214092,-5.843830645675e-05,0.0028040727395362,348.96424605938
0.02828125,0.0028433497261925,0,2.7067084502317,0.36493552011521,3.1404601493924,1.0000940349445,402.94269076232,-5.9058935426122e-05,0.0028353607551154,351.81944255246
0.02859375,0.0028748139721776,0,2.7064505989769,0.36495000333055,3.1404687571479,1.0001039984088,406.10771531051,-5.9660849314046e-05,0.0028666478921338,354.58103696106
0.02890625,0.0029062792545456,0,2.7849290444857,0.364965235195,3.1404767551762,1.0001147118457,409.16264778688,-6.0421322107588e-05,0.0028979341542549,357.24631551787
0.02921875,0.002937745575056,0,3.0208840707241,0.36498118092664,3.1404839324465,1.0001261925833,412.10491818199,-6.1039759078319e-05,0.0029292195449311,359.81303512107
0.02953125,0.0029692129353277,0,3.0206150531262,0.36499779812554,3.1404900662652,1.0001384540143,414.93253651199,-6.1488265965177e-05,0.0029605040673581,362.2794606116
0.02984375,0.0030006813368258,0,3.0203426604942,0.36501503750073,3.1404949259064,1.0001515053868,417.6441238793,-6.1873019653167e-05,0.0029917877244468,364.64439168239
0.03015625,0.0030321507808367,0,3.0200671190739,0.3650328437935,3.1404982766351,1.0001653516792,420.23893094457,-6.236258744226e-05,0.0030230705187866,366.90717883048
0.03046875,0.0030636212684641,0,3.0197886804943,0.36505115686099,3.1404998839641,1.0001799935648,422.71684334437,-6.2956793354083e-05,0.0030543524526314,369.06772775658
0.03078125,0.0030950928006123,0,3.0195076166532,0.36506991287204,3.1404995179746,1.0001954274638,425.07837401728,-6.3368698322328e-05,0.0030856335278788,371.1264924223
0.03109375,0.0031265653779817,0,3.0979643718777,0.36508904556891,3.1404969575248,1.0002116456813,427.32464246475,-6.3739097144518e-05,0.0031169137460621,373.08445739686
0.03140625,0.0031580390010737,0,3.1764190847381,0.36510848753995,3.1404919941844,1.0002286366216,429.4573433094,-6.4280970513438e-05,0.0031481931083563,374.9431099609
0.03171875,0.0031895136701875,0,3.1761318975797,0.36512817145819,3.1404844357489,1.0002463850702,431.47870501805,-6.4809611738183e-05,0.0031794716155804,376.70440353117
0.03203125,0.0032209893854268,0,3.2545834236953,0.36514803123922,3.1404741092197,1.0002648725307,433.39143988982,-6.5188616350177e-05,0.0032107492682103,378.37071423759
0.03234375,0.0032524661467113,0,3.3330337976188,0.36516800308572,3.1404608631627,1.0002840776037,435.19868796363,-6.569069249562e-05,0.0032420260663996,379.9447921552
0.03265625,0.003283943953787,0,3.332743143282,0.36518802638866,3.1404445694081,1.0003039763936,436.90395752071,-6.6242692131068e-05,0.0032733020100014,381.42970860964
0.03296875,0.0033154228062442,0,3.3324518853123,0.36520804446918,3.1404251240711,1.0003245429291,438.51106282006,-6.671934426153e-05,0.0033045770985995,382.82880198437
0.03328125,0.0033469027035247,0,3.332160273953,0.3652280051531,3.1404024479252,1.000345749587,440.02406149312,-6.7406506247858e-05,0.0033358513315261,384.14562338591
0.03359375,0.0033783836449486,0,3.3318685400361,0.36524786117847,3.1403764861713,1.0003675675041,441.44719435942,-6.7869278517114e-05,0.0033671247079067,385.38388308385
0.03390625,0.0034098656297231,0,3.3315768937393,0.36526757044286,3.1403472076726,1.0003899669725,442.78482631443,-6.8555997389882e-05,0.0033983972266782,386.54740022036
0.03421875,0.0034413486568163,0,3.3312854969191,0.3652870961099,3.1403146038383,1.0004129178088,444.04138467746,-8.0766247454702e-05,0.0034296688868228,387.64005733076
0.03453125,0.0034728327255381,0,3.3309945666644,0.36530640656512,3.1402786867539,1.0004363896825,445.22134251286,-8.1973376696977e-05,0.0034609396866287,388.66574816782
0.03484375,0.0035043178347426,0,3.3307042246087,0.36532547529571,3.1402394876482,1.0004603524227,446.32912583701,-8.3198234260325e-05,0.0034922096248355,389.62835336665
0.03515625,0.0035358039833626,0,3.3304145950738,0.36534428065988,3.1401970547729,1.0004847762769,447.36910695893,-8.4439721127011e-05,0.003523478699935,390.53169711296
0.03546875,0.0035672911702981,0,3.4876060974313,0.36536280559233,3.1401514512901,1.0005096321342,448.3455638704,-8.5697360495346e-05,0.0035547469103704,391.37952095838
0.03578125,0.0035987793944294,0,3.4873181874999,0.36538103726219,3.1401027531342,1.0005348917106,449.26265296776,-8.6970149417884e-05,0.0035860142545568,392.17546000116
0.03609375,0.0036302686546278,0,3.4870312487186,0.36539896669866,3.1400510469082,1.0005605276984,450.12438706694,-8.825729217368e-05,0.0036172807308993,392.92302369217
0.03640625,0.0036617589497649,0,3.486745333819,0.3654165884009,3.1399964278629,1.0005865138822,450.93461834887,-8.9558343835903e-05,0.0036485463378093,393.62558094693
0.03671875,0.0036932502787213,0,3.5652006388268,0.36543389994424,3.1399389979962,1.0006128252244,451.69702579951,-9.0872088543208e-05,0.0036798110737171,394.28634918203
0.03703125,0.0037247426403934,0,3.5649168747012,0.36545090159318,3.1398788642975,1.000639437923,452.41510666397,-9.2197288528458e-05,0.0037110749370835,394.90838685891
0.03734375,0.0037562360336993,0,3.64337437122,0.36546759592977,3.1398161371551,1.0006663294462,453.0921714207,-9.3534266709231e-05,0.0037423379264088,395.49458910253
0.03765625,0.0037877304575835,0,3.6430928185931,0.36548398750233,3.1397509289341,1.0006934785462,453.73134178802,-9.4881311611559e-05,0.0037736000402399,396.04768596382
0.03796875,0.0038192259110205,0,3.6428123711952,0.36550008249982,3.1396833527274,1.0007208652548,454.33555128198,-9.623919895786e-05,0.0038048612771762,396.57024291731
0.03828125,0.003850722393018,0,3.6425330189133,0.36551588845252,3.1396135212763,1.0007484708659,454.90754789395,-9.760586837595e-05,0.0038361216358731,397.06466320162
0.03859375,0.0038822199026186,0,3.6422547457892,0.3655314139635,3.1395415460527,1.0007762779058,455.44989846911,-9.8981528938958e-05,0.0038673811150452,397.53319165428
0.03890625,0.0039137184389014,0,3.6419775310688,0.36554666846621,3.1394675364934,1.0008042700938,455.96499443202,-0.00010036600371912,0.0038986397134681,397.9779197167
0.03921875,0.0039452180009827,0,3.7204415076227,0.36556166201155,3.1393915993739,1.000832432297,456.45505853085,-0.00010175796715312,0.0039298974299786,398.40079133033
0.03953125,0.0039767185880165,0,3.7201663328568,0.3655764050828,3.1393138383087,1.0008607504791,456.92215231815,-0.00010315760642682,0.0039611542634753,398.80360947928
0.03984375,0.0040082201991941,0,3.8773724492841,0.36559090843387,3.1392343533649,1.0008892116465,457.36818413367,-0.00010456460756718,0.0039924102129178,399.18804316743
0.04015625,0.0040397228337437,0,3.9558393528764,0.36560518295173,3.1391532407751,1.0009178037915,457.79491738187,-0.00010597864962146,0.0040236652773252,399.55563465525
0.04046875,0.0040712264909299,0,3.9555670109326,0.36561923954087,3.1390705927374,1.0009465158359,458.20397893813,-0.00010739961063457,0.0040549194557749,399.90780680877
0.04078125,0.0041027311700527,0,3.9552955475841,0.36563308902579,3.1389864972895,1.0009753375732,458.5968675471,-0.00010882701359553,0.0040861727474008,400.24587044115
0.04109375,0.0041342368704462,0,3.9550249292273,0.3656467420715,3.1389010382461,1.0010042596129,458.97496210153,-0.00011026150856026,0.0041174251513908,400.57103155158
0.04140625,0.0041657435914775,0,3.9547551223325,0.36566020911815,3.1388142951897,1.0010332733251,459.33952972064,-0.00011170180074042,0.0041486766669847,400.88439838522
0.04171875,0.0041972513325454,0,3.9544860937145,0.36567350033054,3.1387263435044,1.0010623707877,459.69173355482,-0.00011314852275841,0.004179927293472,401.18698825988
0.04203125,0.0042287600930792,0,3.954217810754,0.36568662555804,3.1386372544458,1.0010915447355,460.03264027802,-0.00011460139876407,0.0042111770301893,401.47973411431
0.04234375,0.0042602698725368,0,4.0326903990539,0.36569959430436,3.1385470952389,1.0011207885113,460.36322722747,-0.0001160603852032,0.004242425876518,401.7634907515
0.04265625,0.0042917806704039,0,4.2686439850981,0.36571241570675,3.1384559291981,1.0011500960201,460.68438917299,-0.00011752554186251,0.0042736738318816,402.03904075741
0.04296875,0.0043232924861923,0,4.504598223916,0.36572509852171,3.1383638158639,1.0011794616857,460.99694470363,-0.00011899675424024,0.0043049208957435,402.30710008503
0.04328125,0.0043548053194383,0,4.8980334015226,0.36573765111649,3.1382708111517,1.0012088804097,461.30164222738,-0.00012047447210713,0.0043361670676048,402.56832330126
0.04359375,0.0043863191697018,0,5.3702093326107,0.36575008146652,3.1381769675083,1.0012383475335,461.59916558912,-0.00012195798922483,0.0043674123470016,402.82330849795
0.04390625,0.004417834036565,0,5.6061653605849,0.36576239715675,3.1380823340741,1.0012678588023,461.89013930996,-0.00012344779570637,0.0043986567335034,403.07260187555
0.04421875,0.0044493499196305,0,6.5507833497051,0.36577460538598,3.1379869568469,1.0012974103323,462.17513346504,-0.00012494312912,0.0044299002267105,403.31670200663
0.04453125,0.004480866818521,0,7.0229609134367,0.36578671297389,3.1378908788461,1.0013269985795,462.45466820706,-0.00012644523367742,0.0044611428262522,403.5560637946
0.04484375,0.0045123847328775,0,8.5187610207427,0.36579872637037,3.1377941402751,1.0013566203117,462.72921795934,-0.00012795375421744,0.004492384531785,403.79110213766
0.04515625,0.0045439036623585,0,8.9909395551215,0.3658106516672,3.1376967786801,1.0013862725815,462.99921528793,-0.00012946821451428,0.0045236253429907,404.02219531655
0.04546875,0.0045754236066387,0,9.9355594878122,0.36582249460991,3.137598829106,1.0014159527026,463.26505447393,-0.00013098899191312,0.0045548652595749,404.24968811971
0.04578125,0.0046069445654086,0,10.880179854142,0.36583426061057,3.1375003242457,1.0014456582269,463.52709480521,-0.00013251624651271,0.004586104281265,404.47389472147
0.04609375,0.0046384665383729,0,11.903540792865,0.36584595476212,3.1374012945846,1.0014753869241,463.7856636032,-0.00013405033000208,0.004617342407809,404.69510132976
0.04640625,0.0046699895252499,0,12.926902128798,0.36585758185233,3.1373017685394,1.0015051367628,464.0410590042,-0.00013559076287602,0.0046485796389743,404.91356861804
0.04671875,0.004701513525771,0,14.580185105067,0.36586914637807,3.1372017725895,1.0015349058932,464.29355251014,-0.00013713741090364,0.0046798159745458,405.12953395743
0.04703125,0.0047330385396794,0,15.209846398816,0.3658806525589,3.1371013314032,1.0015646926309,464.5433913268,-0.00013869130108063,0.0047110514143252,405.34321346277
0.04734375,0.0047645645667296,0,16.075728514865,0.36589210435223,3.1370004679564,1.0015944954425,464.79080050803,-0.0001402512434513,0.0047422859581297,405.55480386538
0.04765625,0.004796091606687,0,16.941610966767,0.3659035054663,3.136899203645,1.0016243129323,465.03598491283,-0.00014181824164477,0.0047735196057908,405.76448422885
0.04796875,0.0048276196593269,0,17.571273268897,0.36591485937427,3.1367975583919,1.0016541438298,465.27913099999,-0.00014339177431186,0.0048047523571533,405.97241751584
0.04828125,0.0048591487244339,0,17.807235093891,0.36592616932629,3.1366955507464,1.0016839869791,465.52040846419,-0.00014497235317283,0.0048359842120749,406.17875202154
0.04859375,0.0048906788018018,0,18.515638162366,0.3659374383636,3.1365931979785,1.0017138413281,465.75997173275,-0.00014655990254576,0.0048672151704243,406.38362268172
0.04890625,0.0049222098912326,0,19.145301360992,0.3659486693292,3.1364905161673,1.0017437059195,465.99796133058,-0.00014815417189666,0.0048984452320815,406.58715226726
0.04921875,0.0049537419925363,0,20.089925466865,0.36595986488074,3.1363875202834,1.0017735798824,466.23450512506,-0.00014975582587625,0.0049296743969365,406.78945247419
0.04953125,0.0049852751055302,0,20.404628580539,0.36597102750113,3.1362842242668,1.0018034624245,466.4697194637,-0.00015136379380099,0.0049609026648884,406.99062491677
0.04984375,0.0050168092300388,0,20.640591795285,0.36598215950873,3.1361806410987,1.0018333528247,466.70371020708,-0.00015297911573448,0.0049921300358453,407.19076203459
0.05015625,0.0050483443658934,0,21.270256047446,0.36599326306842,3.1360767828697,1.0018632504272,466.93657367466,-0.00015460186782539,0.0050233565097233,407.3899479174
0.05046875,0.0050798805129312,0,21.506219754202,0.36600434019987,3.1359726608424,1.0018931546353,467.16839750397,-0.00015623182220174,0.0050545820864463,407.58825905749
0.05078125,0.0051114176709959,0,21.820923852912,0.36601539278832,3.1358682855105,1.0019230649062,467.39926143384,-0.00015786829333129,0.0050858067659451,407.78576503489
0.05109375,0.0051429558399363,0,22.05688802155,0.36602642259151,3.1357636666533,1.0019529807463,467.6292380159,-0.00015951237009527,0.0051170305481572,407.98252914181
0.05140625,0.005174495019607,0,22.056631938527,0.36603743124889,3.1356588133872,1.0019829017061,467.85839326577,-0.0001611637523434,0.0051482534330261,408.17860894975
0.05171875,0.0052060352098676,0,22.371336699983,0.36604842028877,3.1355537342126,1.0020128273771,468.08678725269,-0.00016282257613736,0.0051794754205013,408.37405682708
0.05203125,0.0052375764105824,0,22.449821197715,0.36605939113565,3.1354484370583,1.0020427573876,468.31447463806,-0.00016448814760821,0.0052106965105375,408.56892040915
0.05234375,0.0052691186216203,0,22.68578621364,0.36607034511696,3.1353429293228,1.0020726913992,468.54150516339,-0.00016616090094964,0.0052419167030945,408.76324302697
0.05265625,0.0053006618428548,0,23.315452215053,0.36608128346993,3.135237217912,1.0021026291044,468.76792409597,-0.00016784155744578,0.0052731359981369,408.95706409655
0.05296875,0.0053322060741634,0,23.551417622317,0.36609220734597,3.1351313092747,1.0021325702231,468.99377263507,-0.00016952925285433,0.0053043543956335,409.1504194727
0.05328125,0.0053637513154275,0,23.629902903334,0.36610311781855,3.1350252094359,1.0021625145007,469.21908827811,-0.00017122476480966,0.0053355718955575,409.34334177233
0.05359375,0.0053952975665325,0,23.944608841244,0.36611401588697,3.1349189240267,1.0021924617055,469.4439051581,-0.00017292689110083,0.0053667884978858,409.53586066659
0.05390625,0.0054268448273673,0,23.944354329677,0.36612490248136,3.1348124583133,1.0022224116266,469.66825434495,-0.00017463755730625,0.0053980042025988,409.72800314898
0.05421875,0.0054583930978243,0,24.180320467232,0.36613577846799,3.1347058172228,1.0022523640722,469.89216412739,-0.00017635449993906,0.0054292190096806,409.91979377583
0.05453125,0.0054899423777992,0,24.495026935411,0.36614664465321,3.1345990053678,1.0022823188677,470.11566025962,-0.00017807943541101,0.0054604329191182,410.11125488913
0.05484375,0.0055214926671908,0,24.652253258443,0.36615750178704,3.1344920270692,1.0023122758542,470.33876619474,-0.00017981136612707,0.0054916459309019,410.30240681516
0.05515625,0.0055530439659011,0,24.730739590679,0.36616835056774,3.1343848863767,1.0023422348873,470.56150329012,-0.00018155130003184,0.0055228580450245,410.49326804823
0.05546875,0.0055845962738349,0,24.809226086653,0.3661791916454,3.1342775870889,1.0023721958354,470.7838909992,-0.0001832986273174,0.0055540692614818,410.6838554155
0.05578125,0.0056161495908999,0,24.887712743592,0.36619002562423,3.1341701327709,1.0024021585786,471.00594704255,-0.00018505301699197,0.0055852795802718,410.87418422828
0.05609375,0.0056477039170063,0,24.887459401402,0.36620085306651,3.1340625267711,1.0024321230081,471.22768756404,-0.00018681504793144,0.0056164890013949,411.06426841933
0.05640625,0.005679259252067,0,24.887206215101,0.36621167449529,3.1339547722368,1.0024620890247,471.44912727461,-0.00018858423335533,0.005647697524854,411.25412066698
0.05671875,0.0057108155959975,0,24.886953182367,0.36622249039713,3.1338468721287,1.002492056538,471.67027958034,-0.00019036122410851,0.0056789051506537,411.4437525091
0.05703125,0.0057423729487155,0,25.044180615969,0.36623330122425,3.133738829234,1.0025220254659,471.89115670181,-0.00019214531044373,0.0057101118788009,411.6331744455
0.05734375,0.0057739313101411,0,25.1226680414,0.36624410739751,3.1336306461789,1.0025519957335,472.11176977953,-0.00019393699114237,0.0057413177093041,411.82239603238
0.05765625,0.0058054906801967,0,25.122415456705,0.36625490930775,3.1335223254399,1.0025819672728,472.33212897229,-0.00019573639710825,0.0057725226421737,412.01142596712
0.05796875,0.0058370510588066,0,25.200903174997,0.36626570731889,3.1334138693547,1.0026119400217,472.55224354594,-0.0001975429911391,0.0058037266774218,412.20027216567
0.05828125,0.0058686124458973,0,25.20065087957,0.36627650176863,3.1333052801319,1.0026419139237,472.77212195288,-0.00019935709494375,0.005834929815062,412.38894183351
0.05859375,0.0059001748413975,0,25.200398726251,0.36628729297155,3.1331965598601,1.0026718889274,472.99177190618,-0.00020117847016209,0.0058661320551094,412.57744152933
0.05890625,0.0059317382452375,0,25.200146713471,0.36629808121902,3.1330877105161,1.002701864986,473.21120044566,-0.00020300710816317,0.0058973333975806,412.76577722349
0.05921875,0.0059633026573496,0,25.199894839746,0.36630886678301,3.1329787339735,1.0027318420569,473.43041399815,-0.00020484362932612,0.0059285338424933,412.95395435119
0.05953125,0.0059948680776679,0,25.278383261148,0.36631964991537,3.1328696320092,1.0027618201011,473.64941843406,-0.00020668701243933,0.0059597333898669,413.14197786004
0.05984375,0.0060264345061284,0,25.356871818856,0.36633043085048,3.1327604063104,1.0027917990833,473.86821911534,-0.00020853783202571,0.0059909320397215,413.32985225477
0.06015625,0.0060580019426684,0,25.356620354118,0.36634120980583,3.1326510584811,1.0028217789712,474.08682094208,-0.00021039654653716,0.0060221297920787,413.51758163664
0.06046875,0.0060895703872272,0,25.356369023204,0.3663519869838,3.1325415900474,1.0028517597356,474.30522839477,-0.00021226240388794,0.006053326646961,413.70516973943
0.06078125,0.0061211398397456,0,25.434857982442,0.366362762572,3.1324320024635,1.0028817413496,474.52344557088,-0.00021413498070432,0.0060845226043921,413.89261996288
0.06109375,0.0061527103001658,0,25.513347073252,0.36637353674461,3.1323222971161,1.0029117237889,474.74147621829,-0.00021601549271969,0.0061157176643966,414.07993540297
0.06140625,0.0061842817684316,0,25.591836294585,0.366384309664,3.1322124753293,1.0029417070313,474.95932376884,-0.00021790321895635,0.0061469118269999,414.26711887832
0.06171875,0.0062158542444881,0,25.591585487961,0.36639508148015,3.1321025383689,1.0029716910566,475.17699136492,-0.00021979817097205,0.0061781050922284,414.45417295575
0.06203125,0.0062474277282822,0,25.670074967381,0.36640585233271,3.1319924874462,1.0030016758462,475.39448188583,-0.00022170025009846,0.0062092974601095,414.64109997257
0.06234375,0.0062790022197616,0,25.827304731931,0.36641662235119,3.1318823237221,1.0030316613835,475.61179797095,-0.00022360971233651,0.0062404889306711,414.82790205737
0.06265625,0.0063105777188756,0,25.98453462325,0.36642739165576,3.1317720483099,1.003061647653,475.82894204162,-0.00022552639481973,0.006271679503942,415.01458114843
0.06296875,0.0063421542255749,0,26.063024483017,0.36643816035792,3.1316616622789,1.0030916346408,476.04591632011,-0.00022745039926043,0.0063028691799519,415.20113901094
0.06328125,0.0063737317398113,0,26.062774310423,0.36644892856108,3.1315511666575,1.0031216223343,476.26272284776,-0.00022938143880724,0.0063340579587309,415.38757725238
0.06359375,0.0064053102615377,0,26.298744734612,0.36645969636141,3.1314405624353,1.0031516107217,476.47936350041,-0.0002313197419759,0.0063652458403098,415.57389733671
0.06390625,0.0064368897907084,0,26.298494809955,0.36647046384792,3.1313298505663,1.0031815997925,476.69584000386,-0.00023326498214234,0.0063964328247204,415.76010059709
0.06421875,0.0064684703272787,0,26.455725323132,0.36648123110261,3.1312190319709,1.0032115895371,476.91215394622,-0.00023521763457034,0.0064276189119945,415.94618824773
0.06453125,0.0065000518712049,0,26.455475643527,0.36649199820248,3.1311081075381,1.0032415799467,477.12830679099,-0.00023717754098985,0.006458804102165,416.13216139428
0.06484375,0.0065316344224447,0,26.533966242911,0.36650276521817,3.1309970781277,1.0032715710132,477.34429988809,-0.00023914401474118,0.0064899883952651,416.31802104342
0.06515625,0.0065632179809566,0,26.612456963155,0.36651353221521,3.130885944572,1.0033015627293,477.56013448244,-0.00024111802898521,0.0065211717913285,416.50376811233
0.06546875,0.0065948025467001,0,26.690947803631,0.36652429925476,3.1307747076777,1.0033315550884,477.77581172512,-0.00024309910889676,0.0065523542903895,416.68940343581
0.06578125,0.0066263881196358,0,26.690698606252,0.36653506639287,3.1306633682272,1.0033615480843,477.99133268078,-0.00024508683678725,0.0065835358924828,416.874927774
0.06609375,0.0066579746997252,0,26.769189685389,0.36654583368177,3.1305519269808,1.0033915417116,478.20669833446,-0.00024708193799233,0.0066147165976435,417.06034181932
0.06640625,0.0066895622869308,0,26.847680882991,0.36655660116948,3.1304403846772,1.0034215359652,478.42190960007,-0.0002490839291816,0.0066458964059073,417.24564620187
0.06671875,0.006721150881216,0,26.84743204102,0.36656736890076,3.1303287420357,1.0034515308404,478.63696732554,-0.00025109283101445,0.0066770753173101,417.43084149541
0.06703125,0.006752740482545,0,26.847183316418,0.36657813691694,3.1302169997565,1.003481526333,478.85187229887,-0.00025310868403933,0.0067082533318883,417.6159282222
0.06734375,0.0067843310908829,0,27.004415023618,0.36658890525586,3.1301051585227,1.0035115224392,479.06662525315,-0.00025513183761603,0.0067394304496788,417.80090685775
0.06765625,0.0068159227061958,0,27.082906689668,0.36659967395291,3.1299932190008,1.0035415191555,479.28122687239,-0.00025716134234561,0.0067706066707185,417.9857778344
0.06796875,0.0068475153284503,0,27.161398471547,0.36661044304062,3.1298811818417,1.0035715164787,479.49567779394,-0.00025919782814968,0.006801781995045,418.170541546
0.06828125,0.006879108957614,0,27.161150211288,0.36662121254897,3.129769047682,1.0036015144058,479.70997861375,-0.00026124149116971,0.006832956422696,418.35519835076
0.06859375,0.0069107035936554,0,27.239642223372,0.36663198250546,3.1296568171442,1.0036315129342,479.92412989025,-0.00026329163753498,0.0068641299537096,418.5397485743
0.06890625,0.0069422992365435,0,27.318134349854,0.36664275293567,3.1295444908382,1.0036615120615,480.13813214633,-0.00026534876215073,0.0068953025881241,418.72419251303
0.06921875,0.0069738958862481,0,27.396626590277,0.36665352386316,3.1294320693614,1.0036915117855,480.35198587347,-0.00026741266324055,0.0069264743259782,418.9085304363
0.06953125,0.0070054935427398,0,27.475118944192,0.36666429530946,3.1293195532998,1.0037215121041,480.56569153377,-0.00026948355071851,0.0069576451673107,419.09276258905
0.06984375,0.0070370922059899,0,27.474871253682,0.3666750672943,3.1292069432285,1.0037515130154,480.77924956328,-0.0002715607603317,0.0069888151121608,419.27688919362
0.07015625,0.0070686918759702,0,27.474623675795,0.36668583983611,3.1290942397121,1.0037815145179,480.99266037278,-0.00027364498539071,0.0070199841605679,419.46091045235
0.07046875,0.0071002925526534,0,27.553116367588,0.36669661295147,3.1289814433056,1.0038115166099,481.2059243516,-0.00027573562497347,0.0070511523125715,419.64482654865
0.07078125,0.0071318942360126,0,27.552869013687,0.36670738665589,3.1288685545546,1.0038415192901,481.419041868,-0.00027783302013751,0.0070823195682114,419.82863764926
0.07109375,0.0071634969260218,0,27.631361928642,0.3667181609635,3.1287555739959,1.0038715225572,481.6320132718,-0.00027993708115487,0.0071134859275277,420.01234390533
0.07140625,0.0071951006226554,0,27.709854954572,0.36672893588677,3.1286425021581,1.00390152641,481.84483889562,-0.0002820477676191,0.0071446513905605,420.19594545395
0.07171875,0.0072267053258884,0,27.709607933599,0.3667397114379,3.1285293395616,1.0039315308474,482.05751905629,-0.00028416509906187,0.0071758159573502,420.37944241938
0.07203125,0.0072583110356965,0,27.866841337776,0.36675048762716,3.1284160867195,1.0039615358686,482.27005405648,-0.00028628871786698,0.0072069796279373,420.56283491412
0.07234375,0.0072899177520559,0,27.866594536795,0.36676126446444,3.1283027441375,1.0039915414725,482.48244418493,-0.00028841919769474,0.0072381424023625,420.74612304018
0.07265625,0.0073215254749434,0,27.945088002719,0.3667720419586,3.1281893123144,1.0040215476584,482.6946897189,-0.00029055615463767,0.0072693042806667,420.92930688961
0.07296875,0.0073531342043361,0,28.023581577694,0.3667828201175,3.1280757917427,1.0040515544257,482.90679092432,-0.00029269933884906,0.0073004652628908,421.11238654562
0.07328125,0.007384743940212,0,28.023335103868,0.36679359894872,3.1279621829083,1.0040815617735,483.11874805648,-0.0002948491103077,0.007331625349076,421.29536208353
0.07359375,0.0074163546825492,0,28.023088738358,0.3668043784584,3.1278484862914,1.0041115697013,483.33056136148,-0.00029700534605499,0.0073627845392633,421.47823357109
0.07390625,0.0074479664313267,0,28.101582638283,0.3668151586524,3.1277347023662,1.0041415782085,483.54223107686,-0.00029916774109887,0.0073939428334944,421.66100106934
0.07421875,0.0074795791865237,0,28.180076645805,0.36682593953616,3.1276208316016,1.0041715872947,483.75375743153,-0.00030133683263508,0.0074251002318104,421.84366463339
0.07453125,0.0075111929481199,0,28.179830603093,0.36683672111405,3.1275068744611,1.0042015969593,483.96514064759,-0.00030351231405108,0.0074562567342531,422.02622431253
0.07484375,0.0075428077160956,0,28.179584667277,0.36684750339035,3.1273928314031,1.0042316072021,484.17638094037,-0.00030569379853712,0.007487412340864,422.20868015099
0.07515625,0.0075744234904314,0,28.179338838011,0.36685828636878,3.1272787028812,1.0042616180225,484.38747851827,-0.00030788180938285,0.0075185670516849,422.39103218857
0.07546875,0.0076060402711083,0,28.179093114953,0.36686907005233,3.1271644893444,1.0042916294202,484.59843358436,-0.00031007610765951,0.0075497208667575,422.57328046067
0.07578125,0.0076376580581079,0,28.178847497765,0.36687985444402,3.1270501912368,1.004321641395,484.80924633613,-0.00031227679686729,0.0075808737861238,422.75542499892
0.07609375,0.007669276851412,0,28.178601986111,0.36689063954572,3.1269358089986,1.0043516539466,485.01991696641,-0.00031448339935156,0.0076120258098257,422.93746583131
0.07640625,0.007700896651003,0,28.257096737137,0.36690142535965,3.1268213430654,1.0043816670746,485.23044566291,-0.00031669627515244,0.0076431769379051,423.11940298288
0.07671875,0.0077325174568637,0,28.256851435554,0.36691221188775,3.126706793869,1.0044116807789,485.44083260921,-0.00031891548079782,0.0076743271704042,423.30123647568
0.07703125,0.0077641392689769,0,28.256606238515,0.36692299913093,3.1265921618369,1.0044416950593,485.65107798525,-0.00032114055120747,0.007705476507365,423.482966329
0.07734375,0.0077957620873263,0,28.256361145695,0.36693378709041,3.1264774473932,1.0044717099156,485.86118196676,-0.00032337185177081,0.0077366249488298,423.66459255999
0.07765625,0.0078273859118955,0,28.413596471732,0.36694457576696,3.126362650958,1.0045017253475,486.07114472621,-0.00032560937918914,0.0077677724948405,423.84611518346
0.07796875,0.0078590107426688,0,28.413351586387,0.36695536516107,3.1262477729478,1.004531741355,486.28096643314,-0.00032785276300766,0.0077989191454395,424.02753421221
0.07828125,0.0078906365796306,0,28.413106804302,0.36696615527321,3.1261328137758,1.004561757938,486.49064725356,-0.000330102402392,0.0078300649006691,424.20884965745
0.07859375,0.0079222634227658,0,28.412862125163,0.36697694610312,3.1260177738515,1.0045917750962,486.70018735129,-0.00033235784861218,0.0078612097605714,424.39006152855
0.07890625,0.0079538912720594,0,28.491357706137,0.36698773765089,3.1259026535815,1.0046217928297,486.90958688694,-0.00033461945340849,0.0078923537251887,424.5711698336
0.07921875,0.007985520127497,0,28.491113231953,0.36699852991622,3.1257874533687,1.0046518111382,487.1188460191,-0.00033688698579993,0.0079234967945634,424.75217457925
0.07953125,0.0080171499890642,0,28.490868859783,0.36700932289871,3.1256721736132,1.0046818300217,487.32796490394,-0.00033916040331246,0.0079546389687378,424.933075771
0.07984375,0.0080487808567473,0,28.490624589321,0.36702011659739,3.1255568147118,1.0047118494802,487.53694369545,-0.00034143968920895,0.0079857802477541,425.11387341326
0.08015625,0.0080804127305324,0,28.490380420263,0.36703091101208,3.1254413770586,1.0047418695136,487.74578254563,-0.00034372474407702,0.0080169206316547,425.29456750948
0.08046875,0.0081120456104062,0,28.490136352306,0.36704170614136,3.1253258610443,1.0047718901218,487.95448160423,-0.00034601602754119,0.0080480601204819,425.47515806236
0.08078125,0.0081436794963557,0,28.568632542629,0.36705250198456,3.1252102670572,1.0048019113047,488.16304102011,-0.00034831259754644,0.0080791987142779,425.65564507348
0.08109375,0.008175314388368,0,28.647128833454,0.36706329854021,3.1250945954826,1.0048319330624,488.37146093925,-0.00035061534798005,0.0081103364130852,425.83602854419
0.08140625,0.0082069502864305,0,28.804365381964,0.36707409580738,3.1249788467029,1.0048619553947,488.57974150701,-0.0003529235930186,0.0081414732169459,426.01630847481
0.08171875,0.0082385871905309,0,28.804121715422,0.36708489378465,3.1248630210981,1.0048919783018,488.78788286661,-0.00035523771069918,0.0081726091259023,426.19648486541
0.08203125,0.0082702251006571,0,28.803878148496,0.36709569247054,3.1247471190452,1.0049220017834,488.99588515987,-0.00035755790541238,0.0082037441399967,426.3765577155
0.08234375,0.0083018640167972,0,28.882374838375,0.36710649186361,3.124631140919,1.0049520258397,489.20374852788,-0.00035988346391128,0.0082348782592713,426.55652702394
0.08265625,0.0083335039389398,0,28.882131469806,0.36711729196239,3.1245150870914,1.0049820504706,489.4114731097,-0.00036221477333816,0.0082660114837684,426.73639278951
0.08296875,0.0083651448670733,0,28.881888199982,0.36712809276474,3.1243989579321,1.005012075676,489.61905904348,-0.00036455171925815,0.00829714381353,426.91615501053
0.08328125,0.0083967868011866,0,28.881645028616,0.36713889426986,3.124282753808,1.0050421014561,489.82650646616,-0.0003668942749575,0.0083282752485984,427.09581368509
0.08359375,0.0084284297412688,0,28.881401955422,0.36714969647528,3.1241664750839,1.0050721278107,490.03381551371,-0.00036924211031062,0.0083594057890156,427.27536881094
0.08390625,0.0084600736873092,0,28.959899137596,0.36716049937929,3.1240501221219,1.0051021547399,490.24098632037,-0.00037159591856681,0.0083905354348238,427.45482038593
0.08421875,0.0084917186392971,0,29.038396417375,0.36717130298032,3.123933695282,1.0051321822437,490.44801902012,-0.00037395522706394,0.008421664186065,427.6341684074
0.08453125,0.0085233645972223,0,29.038153636997,0.36718210727611,3.1238171949218,1.005162210322,490.65491374566,-0.00037631997121318,0.0084527920427811,427.81341287273
0.08484375,0.0085550115610746,0,29.037910953663,0.36719291226506,3.1237006213966,1.005192238975,490.86167062865,-0.00037869024416902,0.0084839190050142,427.99255377919
0.08515625,0.008586659530844,0,29.116408524575,0.3672037179449,3.1235839750595,1.0052222682025,491.06828980004,-0.00038106586488363,0.0085150450728062,428.17159112397
0.08546875,0.0086183085065208,0,29.116166034496,0.367214524314,3.1234672562612,1.0052522980047,491.27477138949,-0.00038344717416708,0.0085461702461989,428.35052490428
0.08578125,0.0086499584880953,0,29.115923640629,0.36722533136985,3.1233504653505,1.0052823283814,491.48111552651,-0.000385833586713,0.0085772945252342,428.52935511713
0.08609375,0.0086816094755581,0,29.194421500181,0.36723613911081,3.1232336026737,1.0053123593328,491.6873223391,-0.00038822547057237,0.0086084179099538,428.70808175977
0.08640625,0.0087132614689,0,29.194179297918,0.36724694753472,3.1231166685753,1.0053423908588,491.89339195484,-0.00039062268432166,0.0086395404003995,428.88670482932
0.08671875,0.0087449144681117,0,29.193937191049,0.36725775663933,3.1229996633974,1.0053724229595,492.09932450042,-0.00039302524944641,0.008670661996613,429.06522432301
0.08703125,0.0087765684731844,0,29.193695179303,0.3672685664226,3.1228825874802,1.0054024556348,492.30512010177,-0.00039543321893135,0.0087017826986359,429.2436402381
0.08734375,0.0088082234841092,0,29.193453262411,0.36727937688242,3.1227654411618,1.0054324888849,492.51077888439,-0.00039784624817348,0.0087329025065097,429.42195257187
0.08765625,0.0088398795008776,0,29.193211440105,0.36729018801674,3.1226482247781,1.0054625227096,492.71630097232,-0.00040026506161246,0.008764021420276,429.60016132189
0.087968749999999,0.0088715365234808,0,29.192969712118,0.36730099982327,3.1225309386632,1.0054925571091,492.92168649023,-0.00040268853780974,0.0087951394399762,429.77826648547
0.088281249999999,0.0089031945519107,0,29.271468235666,0.3673118122999,3.1224135831491,1.0055225920833,493.12693556084,-0.00040511745040507,0.0088262565656518,429.95626806045
0.088593749999999,0.008934853586159,0,29.271226695523,0.36732262544436,3.1222961585659,1.0055526276322,493.33204830687,-0.00040755158154331,0.0088573727973439,430.13416604455
0.088906249999999,0.0089665136262175,0,29.349725406388,0.36733343925457,3.1221786652415,1.005582663756,493.53702485041,-0.00040999076172919,0.008888488135094,430.31196043564
0.089218749999999,0.0089981746720782,0,29.428224210517,0.36734425372847,3.1220611035022,1.0056127004545,493.74186531282,-0.00041243498724714,0.0089196025789433,430.4896512318
0.089531249999999,0.0090298367237334,0,29.585463265131,0.36735506886357,3.1219434736721,1.0056427377279,493.94656981472,-0.00041488451166779,0.0089507161289328,430.66723843131
0.089843749999999,0.0090614997811752,0,29.585222097529,0.36736588465794,3.1218257760736,1.0056727755761,494.1511384766,-0.00041733888626577,0.0089818287851036,430.84472203246
0.090156249999999,0.0090931638443961,0,29.584981022414,0.36737670110938,3.1217080110271,1.0057028139991,494.35557141777,-0.00041979861998479,0.0090129405474969,431.02210203394
0.090468749999999,0.0091248289133885,0,29.584740039527,0.36738751821548,3.1215901788512,1.005732852997,494.5598687578,-0.00042226297747566,0.0090440514161534,431.19937843434
0.090781249999999,0.0091564949881451,0,29.584499148614,0.36739833597415,3.1214722798625,1.0057628925698,494.7640306148,-0.00042473262603073,0.0090751613911142,431.37655123274
0.091093749999999,0.0091881620686585,0,29.58425834942,0.36740915438337,3.121354314376,1.0057929327176,494.968057107,-0.00042720726632129,0.00910627047242,431.55362042824
0.091406249999999,0.0092198301549216,0,29.58401764169,0.36741997344085,3.1212362827047,1.0058229734402,495.17194835192,-0.00042968687358772,0.0091373786601115,431.73058602015
0.091718749999999,0.0092514992469273,0,29.583777025171,0.3674307931443,3.1211181851599,1.0058530147378,495.37570446686,-0.00043217102888255,0.0091684859542295,431.90744800791
0.092031249999999,0.0092831693446685,0,29.583536499613,0.36744161349174,3.121000022051,1.0058830566104,495.57932556772,-0.00043466065582884,0.0091995923548145,432.08420639155
0.092343749999999,0.0093148404481384,0,29.583296064765,0.36745243448071,3.1208817936857,1.0059130990579,495.7828117713,-0.00043715460735095,0.0092306978619071,432.26086117074
0.092656249999999,0.0093465125573303,0,29.583055720377,0.36746325610916,3.1207635003701,1.0059431420805,495.98616319253,-0.0004396538257768,0.0092618024755477,432.43741234594
0.092968749999999,0.0093781856722373,0,29.582815466201,0.36747407837504,3.1206451424082,1.005973185678,496.18937994693,-0.0004421576528526,0.0092929061957768,432.61385991741
0.093281249999999,0.0094098597928528,0,29.582575301991,0.36748490127608,3.1205267201025,1.0060032298506,496.39246214897,-0.00044466633611922,0.0093240090226346,432.79020388589
0.093593749999999,0.0094415349191703,0,29.582335227499,0.36749572481024,3.1204082337539,1.0060332745983,496.59540991294,-0.00044717974477084,0.0093551109561614,432.96644425223
0.093906249999999,0.0094732110511833,0,29.660835399961,0.36750654897516,3.1202896836613,1.006063319921,496.79822335245,-0.00044969805428462,0.0093862119963974,433.14258101763
0.094218749999999,0.0095048881888855,0,29.660595504172,0.36751737376885,3.120171070122,1.0060933658187,497.00090258105,-0.00045222094876721,0.0094173121433826,433.31861418341
0.094531249999999,0.0095365663322705,0,29.66035569737,0.36752819918916,3.1200523934318,1.0061234122916,497.20344771137,-0.00045474875743201,0.0094484113971572,433.49454375127
0.094843749999999,0.009568245481332,0,29.738856136793,0.36753902523403,3.1199336538847,1.0061534593396,497.40585885621,-0.00045728101945912,0.009479509757761,433.67036972298
0.095156249999999,0.009599925636064,0,29.738616507239,0.36754985190111,3.119814851773,1.0061835069627,497.60813612742,-0.00045981803062953,0.0095106072252339,433.84609210073
0.095468749999999,0.0096316067964602,0,29.738376965949,0.36756067918869,3.1196959873874,1.0062135551609,497.8102796367,-0.00046235971341256,0.0095417037996157,434.02171088691
0.095781249999999,0.0096632889625148,0,29.738137512684,0.36757150709412,3.119577061017,1.0062436039342,498.01228949545,-0.00046490585939082,0.0095727994809462,434.1972260841
0.096093749999999,0.0096949721342216,0,29.737898147206,0.36758233561575,3.1194580729492,1.0062736532827,498.21416581424,-0.00046745685759667,0.009603894269265,434.3726376953
0.096406249999999,0.0097266563115748,0,29.737658869279,0.3675931647513,3.11933902347,1.0063037032064,498.41590870399,-0.00047001207599396,0.0096349881646118,434.54794572351
0.096718749999999,0.0097583414945686,0,29.737419678666,0.36760399449884,3.1192199128635,1.0063337537052,498.61751827447,-0.00047257198728789,0.0096660811670259,434.72315017229
0.097031249999999,0.0097900276831971,0,29.737180575132,0.367614824856,3.1191007414125,1.0063638047792,498.81899463546,-0.00047513645697467,0.0096971732765468,434.89825104529
0.097343749999999,0.0098217148774546,0,29.736941558444,0.36762565582107,3.118981509398,1.0063938564284,499.02033789633,-0.00047770548597826,0.0097282644932139,435.07324834646
0.097656249999999,0.0098534030773355,0,29.73670262837,0.36763648739192,3.1188622170995,1.0064239086528,499.22154816618,-0.0004802788646426,0.0097593548170664,435.24814207999
0.097968749999999,0.0098850922828341,0,29.736463784676,0.3676473195665,3.1187428647951,1.0064539614523,499.42262555356,-0.00048285669891392,0.0097904442481437,435.42293225039
0.098281249999999,0.0099167824939448,0,29.814965184613,0.3676581523425,3.1186234527612,1.0064840148271,499.62357016672,-0.0004854390224676,0.0098215327864847,435.59761886244
0.098593749999999,0.0099484737106621,0,29.89346667047,0.36766898571827,3.1185039812727,1.0065140687771,499.82438211361,-0.00048802576121923,0.0098526204321285,435.77220192115
0.098906249999999,0.0099801659329805,0,29.893228084538,0.36767981969171,3.1183844506029,1.0065441233023,500.02506150185,-0.00049061684574472,0.0098837071851142,435.94668143183
0.099218749999999,0.010011859160895,0,29.89298958407,0.36769065426061,3.1182648610237,1.0065741784026,500.22560843866,-0.00049321230390392,0.0099147930454806,436.12105740007
0.099531249999999,0.010043553394399,0,29.892751168838,0.36770148942339,3.1181452128055,1.0066042340782,500.42602303095,-0.00049581209350254,0.0099458780132666,436.29532983173
0.099843749999999,0.010075248633488,0,29.892512838616,0.36771232517767,3.1180255062172,1.0066342903291,500.62630538546,-0.00049841593741412,0.0099769620885108,436.46949873287
0.10015625,0.010106944878157,0,29.89227459318,0.3677231615217,3.1179057415262,1.0066643471551,500.82645560816,-0.00050102426244039,0.010008045271252,436.64356411004
0.10046875,0.010138642128401,0,29.892036432305,0.36773399845338,3.1177859189983,1.0066944045563,501.02647380502,-0.00050363695158337,0.010039127561529,436.81752596988
0.10078125,0.010170340384213,0,29.891798355767,0.367744835971,3.117666038898,1.0067244625327,501.22636008187,-0.0005062536484095,0.01007020895938,436.99138431928
0.10109375,0.010202039645589,0,29.891560363346,0.36775567407231,3.1175461014884,1.0067545210844,501.42611454373,-0.00050887477739058,0.010101289464843,437.16513916563
0.10140625,0.010233739912525,0,29.891322454818,0.36776651275567,3.1174261070309,1.0067845802112,501.62573729567,-0.00051150011777603,0.010132369077958,437.33879051638
0.10171875,0.010265441185013,0,29.891084629965,0.36777735201895,3.1173060557857,1.0068146399133,501.82522844251,-0.00051412949043315,0.010163447798762,437.51233837933
0.10203125,0.010297143463051,0,29.890846888566,0.36778819186037,3.1171859480115,1.0068447001905,502.02458808851,-0.00051676300244511,0.010194525627293,437.68578276259
0.10234375,0.010328846746632,0,29.890609230403,0.36779903227803,3.1170657839655,1.0068747610429,502.22381633753,-0.00051940094815793,0.01022560256359,437.85912367463
0.10265625,0.010360551035751,0,29.890371655258,0.36780987326982,3.1169455639036,1.0069048224705,502.42291329381,-0.00052204263526967,0.01025667860769,438.03236112392
0.10296875,0.010392256330404,0,29.890134162915,0.36782071483421,3.1168252880802,1.0069348844733,502.62187906046,-0.00052468857791933,0.010287753759633,438.20549511957
0.10328125,0.010423962630585,0,29.889896753157,0.36783155696905,3.1167049567485,1.0069649470512,502.82071374081,-0.00052733855540311,0.010318828019455,438.37852567073
0.10359375,0.01045566993629,0,29.968399583251,0.36784239967271,3.1165845701601,1.0069950102043,503.01941743777,-0.00052999254807907,0.010349901387195,438.55145278692
0.10390625,0.010487378247513,0,30.046902495501,0.36785324294322,3.1164641285653,1.0070250739325,503.21799025405,-0.00053265040348217,0.01038097386289,438.7242764779
0.10421875,0.01051908756425,0,30.125405489696,0.36786408677862,3.1163436322131,1.0070551382358,503.4164322917,-0.00053531256245203,0.010412045446578,438.89699675387
0.10453125,0.010550797886496,0,30.125168408142,0.36787493117728,3.1162230813509,1.0070852031143,503.61474365298,-0.00053797868629051,0.010443116138297,439.0696136251
0.10484375,0.010582509214246,0,30.203671565588,0.3678857761373,3.1161024762252,1.0071152685678,503.81292443981,-0.00054064856959633,0.010474185938084,439.24212710218
0.10515625,0.010614221547495,0,30.203434646864,0.36789662165696,3.1159818170807,1.0071453345964,504.01097475349,-0.00054332256088398,0.010505254845978,439.41453719616
0.10546875,0.010645934886238,0,30.281937966721,0.36790746773448,3.115861104161,1.0071754012001,504.20889469558,-0.0005460001824954,0.010536322862014,439.58684391812
0.10578125,0.010677649230471,0,30.360441367469,0.36791831436773,3.1157403377084,1.0072054683789,504.40668436672,-0.00054868196394936,0.010567389986231,439.75904727971
0.10609375,0.010709364580188,0,30.360204691421,0.3679291615554,3.1156195179638,1.0072355361327,504.60434386783,-0.00055136755492928,0.010598456218667,439.93114729262
0.10640625,0.010741080935386,0,30.35996809585,0.36794000929552,3.1154986451667,1.0072656044615,504.80187329939,-0.00055405699219658,0.010629521559357,440.10314396891
0.10671875,0.010772798296059,0,30.438471738031,0.36795085758625,3.1153777195555,1.0072956733652,504.99927276162,-0.00055675020870736,0.01066058600834,440.27503732095
0.10703125,0.010804516662202,0,30.438235302797,0.36796170642567,3.1152567413672,1.007325742844,505.1965423545,-0.00055944721991784,0.010691649565653,440.44682736135
0.10734375,0.010836236033811,0,30.437998947424,0.36797255581281,3.1151357108375,1.0073558128977,505.3936821776,-0.0005621481985028,0.010722712231332,440.61851410311
0.10765625,0.010867956410881,0,30.43776267171,0.3679834057451,3.1150146282008,1.0073858835264,505.59069233062,-0.00056485279059614,0.010753774005415,440.79009755931
0.10796875,0.010899677793408,0,30.516266632931,0.36799425622102,3.1148934936904,1.0074159547299,505.7875729126,-0.00056756125720276,0.010784834887938,440.96157774351
0.10828125,0.010931400181387,0,30.516030515926,0.36800510723934,3.1147723075382,1.0074460265084,505.98432402282,-0.00057027311784354,0.010815894878938,441.13295466935
0.10859375,0.010963123574812,0,30.515794477974,0.36801595879776,3.1146510699748,1.0074760988617,506.18094575958,-0.00057298907490465,0.010846953978453,441.3042283511
0.10890625,0.01099484797368,0,30.594298676355,0.36802681089493,3.1145297812296,1.0075061717898,506.37743822179,-0.00057570846040103,0.010878012186518,441.47539880285
0.10921875,0.011026573377986,0,30.59406279591,0.36803766352883,3.1144084415308,1.0075362452927,506.5738015075,-0.00057843161180128,0.010909069503171,441.64646603935
0.10953125,0.011058299787726,0,30.59382699392,0.36804851669853,3.1142870511053,1.0075663193704,506.77003571473,-0.00058115855307807,0.010940125928448,441.81743007548
0.10984375,0.011090027202893,0,30.672331427668,0.36805937040128,3.1141656101789,1.0075963940229,506.96614094145,-0.00058388900722261,0.010971181462385,441.98829092635
0.11015625,0.011121755623485,0,30.672095781996,0.36807022463631,3.1140441189761,1.0076264692501,507.16211728514,-0.0005866231054341,0.011002236105019,442.15904860744
0.11046875,0.011153485049497,0,30.67186021419,0.36808107940164,3.1139225777201,1.0076565450519,507.35796484321,-0.00058936077290449,0.011033289856386,442.32970313446
0.11078125,0.011185215480923,0,30.671624724055,0.36809193469564,3.1138009866331,1.0076866214284,507.55368371287,-0.00059210188809475,0.011064342716524,442.50025452338
0.11109375,0.011216946917759,0,30.671389311395,0.36810279051683,3.1136793459358,1.0077166983795,507.74927399086,-0.00059484667158708,0.011095394685467,442.67070279056
0.11140625,0.011248679360001,0,30.671153976018,0.36811364686324,3.1135576558481,1.0077467759053,507.94473577406,-0.00059759484057024,0.011126445763252,442.84104795249
0.11171875,0.011280412807644,0,30.670918717731,0.36812450373365,3.1134359165884,1.0077768540055,508.14006915867,-0.00060034681037522,0.011157495949916,443.01129002612
0.11203125,0.011312147260684,0,30.749423693822,0.36813536112616,3.1920542858544,1.0078069326803,508.33527424119,-0.00060310218158397,0.011188545245493,443.18142902845
0.11234375,0.011343882719116,0,30.74918858914,0.36814621903952,3.2706726063819,1.0078370119296,508.5303511177,-0.00060586090081925,0.011219593650022,443.35146497688
0.11265625,0.011375619182935,0,30.748953560976,0.36815707747201,3.349290878386,1.0078670917532,508.7252998839,-0.00060862317962559,0.011250641163536,443.52139788912
0.11296875,0.011407356652137,0,30.74871860914,0.36816793642183,3.3491689446002,1.0078971721513,508.92012063553,-0.00061138880551271,0.011281687786073,443.69122778305
0.11328125,0.011439095126717,0,30.748483733442,0.36817879588763,3.3490469627175,1.0079272531238,509.11481346794,-0.00061415792492627,0.011312733517668,443.86095467693
0.11359375,0.011470834606672,0,30.826989091177,0.36818965586764,3.3489249329496,1.0079573346706,509.30937847643,-0.00061693037787647,0.011343778358357,444.03057858923
0.11390625,0.011502575091995,0,30.826754367195,0.36820051636072,3.3488028555067,1.0079874167916,509.50381575601,-0.00061970614640706,0.011374822308175,444.20009953867
0.11421875,0.011534316582684,0,30.826519718792,0.36821137736516,3.3486807305983,1.0080174994869,509.69812540138,-0.00062248540452427,0.011405865367159,444.36951754434
0.11453125,0.011566059078732,0,30.826285145782,0.36822223887914,3.3485585584326,1.0080475827564,509.89230750724,-0.00062526801742091,0.011436907535343,444.53883262551
0.11484375,0.011597802580137,0,30.826050647981,0.36823310090138,3.3484363392166,1.0080776666001,510.08636216797,-0.00062805403342127,0.011467948812764,444.70804480177
0.11515625,0.011629547086892,0,30.825816225204,0.36824396343034,3.3483140731563,1.0081077510178,510.28028947797,-0.00063084314642164,0.011498989199457,444.87715409286
0.11546875,0.011661292598994,0,30.825581877268,0.36825482646464,3.3481917604565,1.0081378360096,510.47408953108,-0.0006336356419314,0.011530028695458,445.04616051897
0.11578125,0.011693039116439,0,30.825347603992,0.36826569000247,3.3480694013211,1.0081679215754,510.66776242115,-0.00063643151669426,0.011561067300801,445.21506410048
0.11609375,0.011724786639221,0,30.825113405193,0.36827655404273,3.3479469959527,1.0081980077152,510.86130824206,-0.00063923037441093,0.011592105015522,445.38386485793
0.11640625,0.011756535167336,0,30.824879280692,0.36828741858365,3.3478245445529,1.0082280944289,511.05472708698,-0.00064203265267377,0.011623141839657,445.55256281232
0.11671875,0.01178828470078,0,30.824645230307,0.36829828362389,3.4264422048026,1.0082581817164,511.24801904935,-0.00064483808094036,0.01165417777324,445.72115798477
0.11703125,0.011820035239547,0,30.82441125386,0.36830914916191,3.4263196619407,1.0082882695778,511.44118422211,-0.00064764685478763,0.011685212816307,445.88965039675
0.11734375,0.011851786783635,0,30.824177351173,0.36832001519625,3.4261970736458,1.0083183580129,511.63422269835,-0.00065045870456072,0.011716246968893,446.05804006989
0.11765625,0.011883539333037,0,30.823943522067,0.36833088172555,3.4260744401154,1.0083484470217,511.82713457065,-0.00065327381260394,0.011747280231033,446.2263270262
0.11796875,0.01191529288775,0,30.823709766366,0.36834174874835,3.4259517615456,1.0083785366042,512.01991993177,-0.00065609183639571,0.011778312602762,446.3945112878
0.11828125,0.011947047447769,0,30.823476083894,0.3683526162631,3.4258290381318,1.0084086267603,512.21257887375,-0.00065891326288804,0.011809344084115,446.5625928773
0.11859375,0.011978803013089,0,30.823242474475,0.36836348426843,3.4257062700682,1.00843871749,512.40511148902,-0.00066173769034863,0.011840374675127,446.73057181733
0.11890625,0.012010559583706,0,30.823008937934,0.36837435276299,3.4255834575479,1.0084688087931,512.59751786953,-0.00066456518152154,0.011871404375833,446.89844813089
0.11921875,0.012042317159616,0,30.822775474098,0.36838522174533,3.4254606007633,1.0084989006696,512.78979810711,-0.00066739576230895,0.011902433186267,447.06622184125
0.11953125,0.012074075740813,0,30.901282240273,0.36839609121391,3.4253376999053,1.0085289931196,512.98195229334,-0.00067022953872285,0.011933461106465,447.23389297195
0.11984375,0.012105835327294,0,30.901048921326,0.36840696116769,3.4252147551642,1.0085590861428,513.17398051982,-0.00067306630979005,0.011964488136461,447.40146154668
0.12015625,0.012137595919053,0,30.900815674567,0.36841783160506,3.4250917667291,1.0085891797393,513.36588287789,-0.00067590601391434,0.01199551427629,447.56892758944
0.12046875,0.012169357516087,0,30.900582499823,0.3684287025245,3.4249687347881,1.008619273909,513.55765945861,-0.00067874881527347,0.012026539525986,447.73629112455
0.12078125,0.012201120118391,0,30.900349396926,0.36843957392468,3.4248456595284,1.0086493686518,513.74931035306,-0.00068159454562543,0.012057563885585,447.90355217648
0.12109375,0.012232883725959,0,30.900116365704,0.36845044580437,3.4247225411361,1.0086794639677,513.94083565203,-0.00068444322519284,0.012088587355119,448.07071077001
0.12140625,0.012264648338789,0,30.89988340599,0.36846131816219,3.4245993797964,1.0087095598566,514.13223544607,-0.00068729498632378,0.012119609934625,448.23776693018
0.12171875,0.012296413956874,0,30.899650517615,0.3684721909969,3.4244761756934,1.0087396563184,514.32350982577,-0.00069014966625762,0.012150631624137,448.40472068222
0.12203125,0.012328180580211,0,30.899417700411,0.36848306430686,3.4243529290105,1.0087697533532,514.51465888135,-0.00069300742113626,0.012181652423688,448.57157205169
0.12234375,0.012359948208795,0,30.899184954212,0.36849393809103,3.4242296399299,1.0087998509607,514.70568270331,-0.00069586771348057,0.012212672333314,448.73832106419
0.12265625,0.012391716842622,0,30.898952278853,0.36850481234786,3.4241063086329,1.0088299491409,514.89658138128,-0.00069873112702458,0.012243691353048,448.9049677459
0.12296875,0.012423486481686,0,30.898719674167,0.36851568707607,3.4239829352999,1.0088600478939,515.08735500519,-0.00070159751892438,0.012274709482926,449.07151212302
0.12328125,0.012455257125983,0,30.89848713999,0.3685265622745,3.4238595201102,1.0088901472194,515.27800366482,-0.00070446671688535,0.01230572672298,449.23795422201
0.12359375,0.012487028775509,0,30.898254676158,0.36853743794162,3.4237360632423,1.0089202471175,515.46852744963,-0.00070733884284441,0.012336743073245,449.40429406961
0.12390625,0.01251880143026,0,30.898022282508,0.36854831407631,3.4236125648738,1.0089503475881,515.65892644916,-0.0007102136271004,0.012367758533756,449.57053169274
0.12421875,0.012550575090229,0,30.897789958878,0.36855919067708,3.4234890251812,1.008980448631,515.84920075245,-0.00071309135088954,0.012398773104547,449.73666711869
0.12453125,0.012582349755414,0,30.976297862586,0.36857006774279,3.4233654443402,1.0090105502463,516.0393504487,-0.0007159718016719,0.012429786785651,449.90270037485
0.12484375,0.012614125425809,0,30.97606567851,0.36858094527217,3.4232418225257,1.0090406524338,516.22937562666,-0.00071885523466728,0.012460799577103,450.06863148898
0.12515625,0.01264590210141,0,31.05457372145,0.36859182326395,3.4231181599114,1.0090707551935,516.41927637544,-0.0007217411411243,0.012491811478936,450.23446048887
0.12546875,0.012677679782212,0,31.133081833767,0.3686027017166,3.4229944566703,1.0091008585253,516.60905278328,-0.00072463008005819,0.012522822491185,450.40018740283
0.12578125,0.012709458468211,0,31.13284985782,0.36861358062921,3.4228707129744,1.0091309624291,516.79870493887,-0.00072752169312861,0.012553832613883,450.56581225915
0.12609375,0.012741238159401,0,31.132617950933,0.36862446000047,3.4227469289948,1.0091610669049,516.98823293051,-0.00073041603856385,0.012584841847065,450.73133508648
0.12640625,0.012773018855779,0,31.132386112946,0.36863533982877,3.5013632623822,1.0091911719525,517.17763684635,-0.00073331314760559,0.012615850190763,450.89675591369
0.12671875,0.01280480055734,0,31.132154343704,0.36864622011338,3.5012393983452,1.009221277572,517.36691677461,-0.00073621274780897,0.012646857645013,451.06207476979
0.12703125,0.012836583264079,0,31.210662800529,0.36865710085267,3.5011154945327,1.0092513837631,517.55607280282,-0.00073911535168336,0.012677864209847,451.22729168424
0.12734375,0.012868366975991,0,31.289171325787,0.36866798204562,3.5009915511123,1.0092814905259,517.7451050191,-0.00074202041280318,0.0127088698853,451.39240668645
0.12765625,0.012900151693072,0,31.288939761841,0.36867886369093,3.5008675682507,1.0093115978603,517.93401351088,-0.00074492818748578,0.012739874671405,451.55741980622
0.12796875,0.012931937415317,0,31.367448423498,0.36868974578747,3.5007435461137,1.0093417057661,518.12279836568,-0.00074783861600005,0.012770878568195,451.72233107359
0.12828125,0.012963724142722,0,31.445957153123,0.36870062833381,3.5006194848665,1.0093718142433,518.31145967076,-0.00075075175618368,0.012801881575705,451.88714051876
0.12859375,0.012995511875282,0,31.445725793084,0.36871151132907,3.5004953846732,1.0094019232918,518.49999751336,-0.00075366755266667,0.012832883693968,452.05184817217
0.12890625,0.013027300612991,0,31.445494500708,0.36872239477174,3.5003712456971,1.0094320329115,518.68841198069,-0.00075658573972145,0.012863884923017,452.21645406442
0.12921875,0.013059090355847,0,31.445263275844,0.36873327866081,3.5002470681006,1.0094621431024,518.87670315939,-0.00075950675594318,0.012894885262885,452.38095822652
0.12953125,0.013090881103843,0,31.44503211834,0.36874416299499,3.5001228520454,1.0094922538643,519.06487113653,-0.00076243015285813,0.012925884713608,452.54536068946
0.12984375,0.013122672856976,0,31.523541185526,0.36875504777328,3.4999985976924,1.0095223651972,519.25291599849,-0.00076535631119524,0.012956883275217,452.70966148466
0.13015625,0.01315446561524,0,31.602050319771,0.36876593299422,3.4998743052015,1.009552477101,519.44083783207,-0.00076828480150157,0.012987880947746,452.87386064356
0.13046875,0.013186259378631,0,31.601819363448,0.36877681865698,3.4997499747317,1.0095825895755,519.62863672347,-0.00077121589401921,0.013018877731229,453.037958198
0.13078125,0.013218054147145,0,31.601588473886,0.36878770476009,3.4996256064416,1.0096127026208,519.81631275891,-0.00077414962444653,0.013049873625698,453.20195417995
0.13109375,0.013249849920775,0,31.601357650938,0.3687985913025,3.4995012004886,1.0096428162367,520.00386602465,-0.00077708577859329,0.013080868631188,453.36584862156
0.13140625,0.013281646699519,0,31.601126894458,0.36880947828315,3.4993767570294,1.0096729304231,520.19129660654,-0.00078002453305984,0.013111862747731,453.52964155527
0.13171875,0.013313444483371,0,31.600896204297,0.36882036570084,3.49925227622,1.0097030451799,520.37860459065,-0.00078296558774042,0.013142855975361,453.69333301361
0.13203125,0.013345243272326,0,31.600665580311,0.36883125355439,3.4991277582154,1.0097331605071,520.56579006251,-0.00078590922165096,0.013173848314111,453.85692302949
0.13234375,0.01337704306638,0,31.600435022353,0.36884214184276,3.49900320317,1.0097632764045,520.75285310786,-0.000788855244918,0.013204839764014,454.0204116359
0.13265625,0.013408843865528,0,31.600204530278,0.36885303056471,3.4988786112373,1.0097933928721,520.93979381207,-0.00079180378373933,0.013235830325103,454.1837988661
0.13296875,0.013440645669765,0,31.599974103944,0.36886391971894,3.4987539825701,1.0098235099097,521.12661226051,-0.0007947548288413,0.013266819997411,454.34708475354
0.13328125,0.013472448479086,0,31.599743743205,0.36887480930476,3.4986293173203,1.0098536275173,521.3133085385,-0.00079770823086231,0.013297808780972,454.51026933184
0.13359375,0.013504252293487,0,31.599513447919,0.36888569932084,3.4985046156392,1.0098837456948,521.49988273121,-0.00080066387313157,0.013328796675818,454.67335263482
0.13390625,0.013536057112964,0,31.599283217944,0.36889658976598,3.4983798776772,1.009913864442,521.6863349234,-0.00080362207598675,0.013359783681983,454.83633469664
0.13421875,0.01356786293751,0,31.599053053138,0.3689074806393,3.498255103584,1.0099439837589,521.87266520012,-0.00080658255622878,0.013390769799499,454.99921555147
0.13453125,0.013599669767122,0,31.598822953359,0.36891837193957,3.5768704509888,1.0099741036454,522.05887364589,-0.00080954562162322,0.013421755028399,455.16199523388
0.13484375,0.013631477601795,0,31.598592918468,0.36892926366558,3.5767456050791,1.0100042241014,522.24496034552,-0.00081251096628799,0.013452739368717,455.32467377843
0.13515625,0.013663286441524,0,31.598362948323,0.36894015581655,3.5766207234826,1.0100343451267,522.4309253835,-0.00081547859537242,0.013483722820485,455.48725121998
0.13546875,0.013695096286304,0,31.598133042786,0.36895104839124,3.5764958063461,1.0100644667214,522.61676884411,-0.00081844866848423,0.013514705383737,455.64972759366
0.13578125,0.013726907136131,0,31.597903201718,0.36896194138842,3.5763708538154,1.0100945888852,522.80249081177,-0.00082142089158054,0.013545687058504,455.81210293461
0.13609375,0.013758718990999,0,31.755153739941,0.36897283480729,3.5762458660357,1.010124711618,522.98809137044,-0.00082439555270332,0.013576667844821,455.97437727838
0.13640625,0.013790531850905,0,31.754924027397,0.36898372864659,3.5761208431515,1.0101548349199,523.17357060439,-0.00082737228101889,0.013607647742719,456.1365506605
0.13671875,0.013822345715842,0,31.754694378908,0.36899462290549,3.5759957853066,1.0101849587906,523.35892859721,-0.00083035153070989,0.013638626752231,456.29862311694
0.13703125,0.013854160585807,0,31.83320495182,0.36900551758262,3.5758706926438,1.0102150832301,523.54416543289,-0.00083333299383558,0.013669604873391,456.46059468364
0.13734375,0.013885976460794,0,31.832975431035,0.36901641267725,3.5757455653057,1.0102452082382,523.72928119507,-0.0008363167280466,0.013700582106231,456.62246539683
0.13765625,0.013917793340799,0,31.832745973898,0.369027308188,3.6543605609139,1.0102753338149,523.91427596737,-0.00083930264134327,0.013731558450783,456.78423529289
0.13796875,0.013949611225817,0,31.911256737755,0.36903820411425,3.6542353646488,1.01030545996,524.09914983311,-0.00084229089681661,0.013762533907081,456.94590440844
0.13828125,0.013981430115843,0,31.911027407512,0.3690491004545,3.6541101341309,1.0103355866735,524.28390287575,-0.00084528130715785,0.013793508475156,457.10747278024
0.13859375,0.014013250010872,0,31.910798140514,0.36905999720815,3.6539848694996,1.0103657139552,524.46853517838,-0.00084827408825758,0.013824482155043,457.26894044529
0.13890625,0.0140450709109,0,31.910568936629,0.36907089437385,3.6538595708936,1.010395841805,524.65304682442,-0.00085126873943526,0.013855454946772,457.43030744059
0.13921875,0.014076892815921,0,31.910339795725,0.36908179195072,3.6537342384512,1.0104259702229,524.83743789646,-0.00085426588396159,0.013886426850378,457.59157380366
0.13953125,0.014108715725932,0,31.910110717669,0.36909268993796,3.6536088723096,1.0104560992086,525.02170847762,-0.00085726516729821,0.013917397865892,457.75273957191
0.13984375,0.014140539640926,0,31.909881702331,0.36910358833414,3.6534834726057,1.0104862287622,525.20585865078,-0.00086026643681723,0.013948367993347,457.91380478298
0.14015625,0.014172364560899,0,31.909652749579,0.36911448713827,3.6533580394753,1.0105163588834,525.38988849833,-0.00086327011263762,0.013979337232775,458.07476947486
0.14046875,0.014204190485847,0,31.909423859283,0.36912538634993,3.653232573054,1.0105464895722,525.57379810307,-0.00086627583068448,0.01401030558421,458.2356336855
0.14078125,0.014236017415764,0,31.909195031313,0.36913628596756,3.6531070734763,1.0105766208285,525.75758754742,-0.00086928362988257,0.014041273047682,458.39639745315
0.14109375,0.014267845350645,0,31.987706423022,0.36914718599035,3.6529815408764,1.0106067526521,525.94125691368,-0.00087229359914824,0.014072239623226,458.5570608162
0.14140625,0.014299674290487,0,31.987477719319,0.36915808641736,3.6528559753875,1.0106368850429,526.12480628408,-0.00087530572675393,0.014103205310873,458.71762381325
0.14171875,0.014331504235283,0,31.987249077556,0.36916898724766,3.6527303771425,1.0106670180009,526.30823574079,-0.00087831996209569,0.014134170110656,458.87808648301
0.14203125,0.014363335185029,0,32.144500812568,0.36917988848014,3.6526047462733,1.0106971515258,526.49154536592,-0.00088133619864576,0.014165134022607,459.03844886439
0.14234375,0.01439516713972,0,32.301752609266,0.36919079011371,3.6524790829113,1.0107272856177,526.67473524131,-0.00088435454545343,0.014196097046759,459.1987109965
0.14265625,0.014427000099352,0,32.380264310043,0.36920169214766,3.6523533871874,1.0107574202763,526.85780544877,-0.00088737502903838,0.014227059183143,459.35887291861
0.14296875,0.014458834063919,0,32.380035914774,0.36921259458093,3.6522276592316,1.0107875555015,527.04075607005,-0.00089039758642945,0.014258020431793,459.51893467012
0.14328125,0.014490669033416,0,32.379807580814,0.36922349741255,3.6521018991735,1.0108176912933,527.22358718685,-0.00089342209020319,0.01428898079274,459.67889629061
0.14359375,0.014522505007839,0,32.458319465518,0.3692344006416,3.6519761071419,1.0108478276515,527.4062988805,-0.00089644879764432,0.014319940266018,459.83875781988
0.14390625,0.014554341987182,0,32.536831411281,0.36924530426711,3.651850283265,1.010877964576,527.58889123264,-0.00089947737838252,0.014350898851657,459.99851929779
0.14421875,0.014586179971442,0,32.5366032605,0.36925620828814,3.6517244276704,1.0109081020666,527.7713643245,-0.00090250795830979,0.014381856549691,460.15818076445
0.14453125,0.014618018960612,0,32.693855485491,0.36926711270377,3.6515985404851,1.0109382401234,527.95371823711,-0.00090554079505155,0.014412813360151,460.3177422602
0.14484375,0.014649858954688,0,32.693627456212,0.369278017513,3.6514726218355,1.010968378746,528.13595305186,-0.00090857544621393,0.01444376928307,460.47720382529
0.14515625,0.014681699953666,0,32.6933994875,0.36928892271498,3.6513466718473,1.0109985179344,528.31806884962,-0.00091161213811773,0.01447472431848,460.6365655004
0.14546875,0.014713541957539,0,32.771911736714,0.36929982830887,3.6512206906457,1.0110286576886,528.50006571143,-0.00091465066403999,0.014505678466414,460.79582732616
0.14578125,0.014745384966304,0,32.850424046253,0.36931073429339,3.7298348358356,1.0110587980083,528.68194371782,-0.00091769144637396,0.014536631726903,460.95498934361
0.14609375,0.014777228979955,0,32.928936415995,0.36932164066807,3.7297087925801,1.0110889388934,528.8637029498,-0.00092073406433239,0.01456758409998,461.11405159366
0.14640625,0.014809073998487,0,32.928708688341,0.36933254743157,3.729582718483,1.0111190803439,529.04534348786,-0.00092377865673904,0.014598535585676,461.27301411754
0.14671875,0.014840920021896,0,33.085961335611,0.36934345458326,3.7294566136671,1.0111492223595,529.22686541262,-0.00092682508483923,0.014629486184024,461.43187695658
0.14703125,0.014872767050177,0,33.164473885245,0.36935436212233,3.7293304782544,1.0111793649402,529.4082688044,-0.00092987353053045,0.014660435895056,461.59064015233
0.14734375,0.014904615083324,0,33.242986494606,0.36936527004753,3.7292043123666,1.0112095080858,529.58955374355,-0.00093292393014972,0.014691384718805,461.74930374643
0.14765625,0.014936464121333,0,33.400239321054,0.36937617835824,3.7290781161247,1.0112396517962,529.7707203103,-0.00093597630035014,0.014722332655301,461.90786778069
0.14796875,0.014968314164198,0,33.400011892032,0.36938708705352,3.728951889649,1.0112697960713,529.95176858489,-0.00093903045311286,0.014753279704578,462.06633229702
0.14828125,0.015000165211915,0,33.478524679864,0.36939799613225,3.7288256330594,1.011299940911,530.13269864732,-0.00094208647404963,0.014784225866667,462.22469733755
0.14859375,0.015032017264479,0,33.635777684431,0.36940890559399,3.7286993464751,1.0113300863151,530.31351057747,-0.00094514447346335,0.0148151711416,462.38296294456
0.14890625,0.015063870321886,0,33.793030748139,0.36941981543748,3.7285730300148,1.0113602322834,530.4942044552,-0.00094820440786785,0.014846115529409,462.54112916043
0.14921875,0.015095724384128,0,33.79280355591,0.36943072566198,3.7284466837967,1.011390378816,530.6747803604,-0.00095126610368374,0.014877059030127,462.69919602766
0.14953125,0.015127579451203,0,33.79257642259,0.36944163626652,3.7283203079384,1.0114205259125,530.85523837263,-0.00095432970291251,0.014908001643785,462.85716358897
0.14984375,0.015159435523105,0,33.949829663025,0.36945254725049,3.7281939025568,1.011450673573,531.03557857149,-0.00095739517997227,0.014938943370415,463.01503188718
0.15015625,0.015191292599829,0,33.949602647178,0.36946345861256,3.7280674677684,1.0114808217972,531.21580103652,-0.00096046247326259,0.01496988421005,463.17280096526
0.15046875,0.015223150681371,0,33.949375689898,0.36947437035249,3.7279410036891,1.011510970585,531.39590584702,-0.00096353168861144,0.015000824162721,463.33047086633
0.15078125,0.015255009767724,0,34.02788894855,0.36948528246894,3.7278145104342,1.0115411199364,531.57589308254,-0.00096660245619482,0.015031763228459,463.48804163354
0.15109375,0.015286869858884,0,34.106402265543,0.36949619496111,3.7276879881187,1.0115712698511,531.75576282191,-0.00096967535788805,0.015062701407298,463.64551331044
0.15140625,0.015318730954847,0,34.184915640762,0.3695071078283,3.7275614368566,1.011601420329,531.93551514462,-0.00097274983729556,0.015093638699269,463.80288594038
0.15171875,0.015350593055607,0,34.184688916616,0.3695180210696,3.7274348567619,1.01163157137,532.11515012935,-0.00097582641717009,0.015124575104403,463.9601595672
0.15203125,0.015382456161159,0,34.184462250474,0.36952893468434,3.7273082479477,1.011661722974,532.29466785547,-0.00097890444399641,0.015155510622734,464.11733423447
0.15234375,0.015414320271499,0,34.262975799705,0.36953984867124,3.7271816105266,1.0116918751408,532.47406840154,-0.00098198438131954,0.015186445254292,464.27440998626
0.15265625,0.01544618538662,0,34.262749249238,0.36955076302985,3.7270549446109,1.0117220278703,532.65335184632,-0.00098506621516123,0.015217378999109,464.43138686663
0.15296875,0.015478051506519,0,34.341262913923,0.3695616777592,3.7269282503121,1.0117521811623,532.83251826861,-0.00098814976706215,0.015248311857218,464.58826491969
0.15328125,0.015509918631191,0,34.34103647869,0.36957259285849,3.7268015277414,1.0117823350167,533.01156774702,-0.00099123502258857,0.015279243828649,464.74504418978
0.15359375,0.015541786760629,0,34.34081010091,0.36958350832703,3.7266747770093,1.0118124894334,533.19050035998,-0.0009943220554675,0.015310174913436,464.90172472136
0.15390625,0.01557365589483,0,34.340583780475,0.36959442416379,3.7265479982259,1.0118426444122,533.36931618593,-0.00099741086038412,0.015341105111609,465.05830655898
0.15421875,0.015605526033789,0,34.419097674756,0.36960534036803,3.7264211915008,1.011872799953,533.54801530317,-0.0010005014411027,0.015372034423201,465.21478974735
0.15453125,0.0156373971775,0,34.418871468684,0.36961625693881,3.726294356943,1.0119029560557,533.72659779012,-0.0010035935722762,0.015402962848244,465.37117433124
0.15484375,0.015669269325958,0,34.576125634594,0.36962717387552,3.7261674946612,1.01193311272,533.90506372474,-0.0010066875506476,0.015433890386768,465.52746035567
0.15515625,0.015701142479158,0,34.654639699937,0.36963809117734,3.8047807622435,1.011963269946,534.08341318505,-0.0010097834315673,0.015464817038806,465.68364786573
0.15546875,0.015733016637096,0,34.733153822088,0.36964900884343,3.8046538448371,1.0119934277333,534.26164624939,-0.0010128806767624,0.01549574280439,465.83973690643
0.15578125,0.015764891799767,0,34.890408158419,0.3696599268728,3.8045269000292,1.0120235860819,534.43976299541,-0.0010159797094825,0.015526667683552,465.99572752325
0.15609375,0.015796767967164,0,35.047662551346,0.36967084526483,3.8043999279265,1.0120537449917,534.61776350092,-0.0010190804784097,0.015557591676322,466.15161976157
0.15640625,0.015828645139284,0,35.362397315724,0.36968176401875,3.8042729286349,1.0120839044624,534.79564784369,-0.0010221830036943,0.015588514782734,466.30741366696
0.15671875,0.015860523316122,0,35.519651821526,0.36969268313382,3.8041459022602,1.012114064494,534.97341610142,-0.001025287158554,0.015619437002818,466.46310928503
0.15703125,0.015892402497672,0,35.598166226129,0.36970360260911,3.8040188489073,1.0121442250863,535.15106835169,-0.0010283929418279,0.015650358336606,466.61870666158
0.15734375,0.015924282683929,0,35.755420844389,0.36971452244376,3.803891768681,1.0121743862391,535.32860467202,-0.0010315003039019,0.01568127878413,466.77420584248
0.15765625,0.015956163874888,0,35.912675518723,0.3697254426372,3.8037646616855,1.0122045479523,535.50602513965,-0.0010346094809457,0.015712198345422,466.92960687382
0.15796875,0.015988046070545,0,36.069930249026,0.36973636318873,3.8036375280243,1.0122347102258,535.68332983218,-0.0010377200774419,0.015743117020514,467.0849098016
0.15828125,0.016019929270895,0,36.148444877717,0.36974728409723,3.8035103678007,1.0122648730594,535.86051882653,-0.0010408325406384,0.015774034809436,467.24011467218
0.15859375,0.016051813475931,0,36.148219404692,0.36975820536217,3.8033831811175,1.012295036453,536.03759220004,-0.0010439466162905,0.015804951712221,467.39522153183
0.15890625,0.01608369868565,0,36.305474302292,0.36976912698283,3.8032559680768,1.0123252004064,536.21455002979,-0.0010470623209814,0.015835867728901,467.55023042701
0.15921875,0.016115584900046,0,36.383989097973,0.3697800489582,3.8031287287807,1.0123553649194,536.39139239283,-0.0010501795212422,0.015866782859506,467.70514140423
0.15953125,0.016147472119115,0,36.383763791635,0.36979097128764,3.8030014633303,1.012385529992,536.56811936606,-0.0010532982770329,0.015897697104069,467.85995451021
0.15984375,0.016179360342851,0,36.541018855617,0.36980189397064,3.8028741718267,1.0124156956239,536.74473102613,-0.0010564188669482,0.015928610462622,468.01466979176
0.16015625,0.016211249571249,0,36.540793659899,0.369812817006,3.8027468543702,1.012445861815,536.92122745003,-0.001059540930208,0.015959522935195,468.16928729569
0.16046875,0.016243139804304,0,36.540568519341,0.36982374039341,3.8813596685413,1.0124760285652,537.09760871438,-0.0010626645587253,0.015990434521821,468.32380706899
0.16078125,0.016275031042012,0,36.619083591323,0.36983466413184,3.8812322994787,1.0125061958744,537.27387489568,-0.0010657898918835,0.016021345222531,468.47822915878
0.16109375,0.016306923284367,0,36.618858560787,0.36984558822057,3.8811049047619,1.0125363637422,537.45002607068,-0.0010689165745277,0.016052255037357,468.63255361216
0.16140625,0.016338816531364,0,36.776113900075,0.36985651265889,3.8809774844897,1.0125665321687,537.62606231562,-0.0010720449327871,0.01608316396633,468.78678047651
0.16171875,0.016370710782998,0,36.933369294128,0.36986743744598,3.8808500387602,1.0125967011536,537.80198370698,-0.0010751747921531,0.016114072009482,468.94090979916
0.16203125,0.016402606039264,0,37.011884585367,0.3698783625815,3.8807225676711,1.0126268706969,537.97779032092,-0.0010783063183515,0.016144979166845,469.09494162765
0.16234375,0.016434502300158,0,37.090399931176,0.36988928806434,3.88059507132,1.0126570407982,538.15348223379,-0.001081439288509,0.016175885438449,469.24887600948
0.16265625,0.016466399565674,0,37.090175173977,0.36990021389364,3.8804675498037,1.0126872114576,538.32905952166,-0.0010845738289016,0.016206790824328,469.40271299238
0.16296875,0.016498297835806,0,37.168690628634,0.36991114006901,3.8803400032186,1.0127173826748,538.5045222605,-0.001087710013026,0.016237695324511,469.55645262413
0.16328125,0.016530197110551,0,37.32594629505,0.36992206658968,3.8802124316609,1.0127475544496,538.67987052646,-0.0010908476246344,0.016268598939032,469.71009495255
0.16359375,0.016562097389903,0,37.404461858171,0.36993299345471,3.8800848352263,1.012777726782,538.85510439529,-0.0010939868669566,0.01629950166792,469.86364002564
0.16390625,0.016593998673858,0,37.561717632859,0.36994392066345,3.9586973714902,1.0128078996718,539.03022394303,-0.0010971273984341,0.016330403511209,470.01708789137
0.16421875,0.016625900962409,0,37.64023330406,0.36995484821538,3.9585697255868,1.0128380731187,539.20522924529,-0.0011002694683914,0.016361304468929,470.17043859797
0.16453125,0.016657804255552,0,37.71874902916,0.36996577610951,3.9584420550909,1.0128682471227,539.38012037762,-0.0011034132100924,0.016392204541112,470.32369219367
0.16484375,0.016689708553282,0,37.797264808063,0.36997670434552,3.9583143600963,1.0128984216836,539.55489741572,-0.0011065585120779,0.016423103727789,470.47684872678
0.16515625,0.016721613855594,0,37.875780640676,0.36998763292227,3.9581866406968,1.0129285968012,539.72956043527,-0.0011097050985416,0.016454002028992,470.62990824563
0.16546875,0.016753520162484,0,38.033036684385,0.36999856183938,4.0367990544658,1.0129587724754,539.90410951162,-0.0011128531423859,0.016484899444753,470.78287079877
0.16578125,0.016785427473945,0,38.111552624137,0.37000949109604,4.0366712865353,1.012988948706,540.07854472004,-0.0011160027810027,0.016515795975103,470.93573643482
0.16609375,0.016817335789973,0,38.19006861732,0.37002042069155,4.0365434944781,1.0130191254928,540.25286613596,-0.0011191538298755,0.016546691620073,471.08850520238
0.16640625,0.016849245110563,0,38.34732482132,0.37003135062496,4.0364156783861,1.0130493028358,540.42707383448,-0.0011223064568199,0.016577586379696,471.24117715026
0.16671875,0.01688115543571,0,38.425840921085,0.37004228089609,4.0362878383509,1.0130794807346,540.60116789091,-0.0011254604323616,0.016608480254002,471.39375232723
0.16703125,0.016913066765409,0,38.583097231484,0.37005321150381,4.0361599744635,1.0131096591892,540.77514838027,-0.0011286158297214,0.016639373243023,471.5462307822
0.16734375,0.016944979099655,0,38.740353594945,0.37006414244771,4.0360320868149,1.0131398381994,540.94901537752,-0.0011317727350355,0.01667026534679,471.69861256422
0.16765625,0.016976892438443,0,38.740129696416,0.37007507372691,4.0359041754953,1.0131700177651,541.12276895761,-0.0011349311069619,0.016701156565335,471.85089772234
0.16796875,0.017008806781767,0,38.818646008249,0.37008600534082,4.0357762405948,1.013200197886,541.29640919543,-0.001138090879047,0.01673204689869,472.00308630569
0.16828125,0.017040722129624,0,38.81842221539,0.37009693728877,4.0356482822029,1.0132303785621,541.46993616579,-0.0011412520476293,0.016762936346886,472.15517836351
0.16859375,0.017072638482007,0,39.054418947673,0.37010786957012,4.0355203004089,1.013260559793,541.64334994335,-0.0011444146780096,0.016793824909954,472.3071739451
0.16890625,0.017104555838912,0,39.132935417606,0.37011880218409,4.0353922953015,1.0132907415788,541.81665060279,-0.0011475786947843,0.016824712587926,472.45907309985
0.16921875,0.017136474200334,0,39.29019209754,0.37012973513011,4.0352642669693,1.0133209239192,541.98983821867,-0.001150744156385,0.016855599380834,472.61087587723
0.16953125,0.017168393566268,0,39.368708672425,0.37014066840735,4.0351362155003,1.013351106814,542.16291286552,-0.0011539109666194,0.016886485288708,472.76258232672
0.16984375,0.017200313936709,0,39.368485142174,0.37015160201533,4.0350081409822,1.0133812902631,542.33587461763,-0.0011570793379274,0.01691737031158,472.914192498
0.17015625,0.017232235311651,0,39.525741979139,0.37016253595332,4.0348800435024,1.0134114742663,542.50872354965,-0.0011602488438025,0.016948254449482,473.06570644063
0.17046875,0.01726415769109,0,39.60425871079,0.37017347022079,4.0347519231478,1.0134416588235,542.68145973561,-0.0011634198762678,0.016979137702445,473.21712420445
0.17078125,0.017296081075022,0,39.604035337041,0.37018440481681,4.0346237800049,1.0134718439344,542.85408324973,-0.0011665923903228,0.017010020070501,473.36844583928
0.17109375,0.017328005463439,0,39.761292330245,0.37019533974076,4.0344956141601,1.013502029599,543.02659416637,-0.0011697661021972,0.017040901553681,473.51967139491
0.17140625,0.017359930856339,0,39.761069060394,0.37020627499234,4.0343674256991,1.013532215817,543.19899255943,-0.0011729412441225,0.017071782152016,473.67080092137
0.17171875,0.017391857253716,0,39.839585999843,0.37021721057049,4.0342392147075,1.0135624025883,543.37127850296,-0.0011761177737984,0.017102661865538,473.82183446866
0.17203125,0.017423784655564,0,39.839362833544,0.37022814647488,4.0341109812704,1.0135925899126,543.54345207096,-0.0011792955619208,0.017133540694279,473.97277208682
0.17234375,0.017455713061879,0,39.917879876372,0.37023908270439,4.0339827254726,1.01362277779,543.71551333716,-0.001182474823472,0.017164418638269,474.12361382608
0.17265625,0.017487642472656,0,40.075137128241,0.37025001925888,4.0338544473985,1.01365296622,543.88746237544,-0.0011856554469124,0.017195295697541,474.27435973661
0.17296875,0.01751957288789,0,40.232394431587,0.37026095613755,4.0337261471322,1.0136831552027,544.05929925953,-0.0011888374047188,0.017226171872125,474.42500986868
0.17328125,0.017551504307576,0,40.389651786324,0.37027189333973,4.0335978247574,1.0137133447378,544.23102406306,-0.0011920207413859,0.017257047162053,474.57556427264
0.17359375,0.017583436731708,0,40.546909192368,0.37028283086477,4.0334694803574,1.0137435348251,544.40263685974,-0.0011952052786416,0.017287921567356,474.72602299884
0.17390625,0.017615370160282,0,40.625426492153,0.37029376871215,4.1120812714957,1.0137737254645,544.57413772295,-0.0011983912541253,0.017318795088067,474.87638609782
0.17421875,0.017647304593294,0,40.861424158038,0.370304706881,4.1119528832943,1.0138039166558,544.74552672627,-0.0012015784228754,0.017349667724215,475.02665362003
0.17453125,0.017679240030737,0,40.861201402536,0.37031564537093,4.1118244733158,1.0138341083989,544.91680394293,-0.0012047670829226,0.017380539475834,475.17682561612
0.17484375,0.017711176472607,0,40.860978698006,0.37032658418113,4.1116960416422,1.0138643006935,545.08796944642,-0.0012079569176908,0.017411410342953,475.32690213664
0.17515625,0.017743113918899,0,40.860756044365,0.37033752331107,4.1115675883552,1.0138944935394,545.25902330983,-0.001211148205623,0.017442280325605,475.47688323237
0.17546875,0.017775052369608,0,40.93927359901,0.37034846276031,4.111439113536,1.0139246869366,545.42996560656,-0.001214340608078,0.017473149423821,475.62676895398
0.17578125,0.017806991824729,0,41.017791204378,0.37035940252774,4.1113106172658,1.0139548808848,545.60079640954,-0.0012175343840038,0.017504017637632,475.77655935231
0.17609375,0.017838932284256,0,41.175049017868,0.37037034261327,4.1111820996251,1.0139850753839,545.77151579179,-0.0012207296163964,0.01753488496707,475.92625447829
0.17640625,0.017870873748186,0,41.253566724438,0.37038128301595,4.1110535606942,1.0140152704337,545.94212382654,-0.0012239259076751,0.017565751412166,476.07585438267
0.17671875,0.017902816216513,0,41.253344324005,0.37039222373533,4.1109250005532,1.0140454660339,546.11262058641,-0.0012271237065001,0.017596616972952,476.22535911658
0.17703125,0.017934759689232,0,41.410602288931,0.37040316477073,4.1107964192818,1.0140756621845,546.2830061446,-0.0012303224846976,0.017627481649459,476.37476873087
0.17734375,0.017966704166339,0,41.567860304173,0.37041410612163,4.1106678169591,1.0141058588852,546.45328057361,-0.0012335226678623,0.017658345441717,476.52408327674
0.17765625,0.017998649647827,0,41.72511836965,0.37042504778724,4.1105391936644,1.0141360561359,546.62344394627,-0.0012367240870099,0.01768920834976,476.67330280525
0.17796875,0.018030596133692,0,41.724896170323,0.37043598976715,4.1104105494762,1.0141662539364,546.79349633517,-0.0012399268405397,0.017720070373618,476.8224273676
0.17828125,0.01806254362393,0,41.724674021072,0.37044693206065,4.1102818844729,1.0141964522865,546.96343781297,-0.0012431308360503,0.017750931513322,476.97145701498
0.17859375,0.018094492118535,0,41.724451921818,0.37045787466709,4.1101531987327,1.0142266511861,547.13326845209,-0.0012463361670714,0.017781791768904,477.12039179867
0.17890625,0.018126441617503,0,41.80297002996,0.37046881758627,4.1100244923332,1.0142568506349,547.30298832514,-0.0012495426630429,0.017812651140395,477.26923176994
0.17921875,0.018158392120828,0,41.881488187941,0.37047976081697,4.1098957653519,1.0142870506328,547.47259750441,-0.0012527504349481,0.017843509627828,477.41797698017
0.17953125,0.018190343628505,0,42.038746553161,0.3704907043589,4.1097670178659,1.0143172511795,547.64209606236,-0.0012559593040899,0.017874367231232,477.56662748072
0.17984375,0.01822229614053,0,42.117264810582,0.37050164821149,4.1096382499519,1.014347452275,547.81148407104,-0.0012591695975191,0.017905223950639,477.71518332313
0.18015625,0.018254249656897,0,42.195783117606,0.37051259237427,4.1095094616866,1.0143776539191,547.98076160288,-0.001262380943008,0.017936079786082,477.86364455876
0.18046875,0.018286204177602,0,42.195561316674,0.37052353684656,4.109380653146,1.0144078561114,548.14992872978,-0.0012655936991753,0.017966934737591,478.01201123927
0.18078125,0.018318159702639,0,42.274079722671,0.37053448162771,4.109251824406,1.014438058852,548.3189855239,-0.0012688077415971,0.017997788805197,478.16028341616
0.18109375,0.018350116232004,0,42.510078492998,0.37054542671694,4.1091229755424,1.0144682621405,548.48793205746,-0.0012720227092157,0.018028641988933,478.30846114098
0.18140625,0.018382073765693,0,42.588596997658,0.37055637211414,4.1089941066302,1.0144984659769,548.65676840212,-0.0012752390765123,0.018059494288829,478.4565444655
0.18171875,0.018414032303698,0,42.667115551534,0.37056731781845,4.1088652177445,1.0145286703608,548.82549462993,-0.0012784565661552,0.018090345704916,478.60453344135
0.18203125,0.018445991846017,0,42.745634154551,0.37057826382929,4.10873630896,1.0145588752922,548.99411081256,-0.0012816753902614,0.018121196237227,478.7524281203
0.18234375,0.018477952392644,0,42.981633121592,0.3705892101461,4.1086073803511,1.0145890807709,549.16261702193,-0.0012848952898188,0.018152045885793,478.90022855405
0.18265625,0.018509913943574,0,42.981411665181,0.37060015676835,4.1084784319918,1.0146192867966,549.33101332966,-0.0012881164049607,0.018182894650644,479.04793479447
0.18296875,0.018541876498802,0,43.138670572644,0.37061110369554,4.108349463956,1.0146494933693,549.49929980735,-0.0012913387309973,0.018213742531813,479.19554689338
0.18328125,0.018573840058324,0,43.374669686424,0.37062205092691,4.1082204763171,1.0146797004886,549.66747652663,-0.0012945622123972,0.018244589529331,479.34306490265
0.18359375,0.018605804622133,0,43.531928691486,0.37063299846197,4.1080914691483,1.0147099081544,549.83554355894,-0.0012977869080525,0.018275435643228,479.49048887422
0.18390625,0.018637770190226,0,43.531707430276,0.37064394630018,4.1079624425226,1.0147401163666,550.00350097577,-0.0013010127467211,0.018306280873537,479.63781886001
0.18421875,0.018669736762598,0,43.610226375159,0.37065489444115,4.1078333965127,1.0147703251249,550.17134884851,-0.0013042397262472,0.01833712522029,479.78505491201
0.18453125,0.018701704339243,0,43.610005211101,0.37066584288401,4.1077043311908,1.0148005344292,550.33908724838,-0.0013074679835845,0.018367968683516,479.93219708227
0.18484375,0.018733672920157,0,43.609784095509,0.37067679162843,4.107575246629,1.0148307442792,550.50671624676,-0.0013106973231806,0.018398811263248,480.07924542278
0.18515625,0.018765642505335,0,43.688303185789,0.37068774067382,4.1861863003795,1.0148609546748,550.67423591475,-0.0013139279008601,0.018429652959517,480.22619998567
0.18546875,0.018797613094772,0,43.688082166906,0.37069869001957,4.1860571775532,1.0148911656159,550.84164632356,-0.0013171595705749,0.018460493772355,480.373060823
0.18578125,0.018829584688463,0,43.766601353749,0.37070963966502,4.2646681931817,1.0149213771021,551.00894754424,-0.0013203923782427,0.018491333701793,480.51982798694
0.18609375,0.018861557286403,0,43.845120588765,0.37072058960976,4.2645390323756,1.0149515891333,551.17613964776,-0.0013236264046688,0.018522172747862,480.66650152968
0.18640625,0.018893530888587,0,44.002380029361,0.37073153985341,4.2644098526858,1.0149818017094,551.34322270516,-0.0013268614681033,0.018553010910593,480.81308150334
0.18671875,0.018925505495011,0,44.159639517985,0.37074249039483,4.2642806541826,1.0150120148301,551.51019678724,-0.0013300977248365,0.018583848190019,480.95956796023
0.18703125,0.018957481105669,0,44.316899054564,0.37075344123428,4.2641514369362,1.0150422284953,551.67706196485,-0.001333335147922,0.018614684586169,481.10596095258
0.18734375,0.018989457720557,0,44.395418481547,0.37076439237069,4.2640222010166,1.0150724427047,551.84381830886,-0.0013365735795476,0.018645520099077,481.25226053262
0.18765625,0.01902143533967,0,44.473937956342,0.37077534380364,4.2638929464931,1.0151026574582,552.01046588974,-0.0013398133599115,0.018676354728773,481.39846675276
0.18796875,0.019053413963002,0,44.473717321397,0.37078629553257,4.2637636734352,1.0151328727555,552.17700477842,-0.0013430540654042,0.018707188475289,481.54457966522
0.18828125,0.01908539359055,0,44.473496734123,0.37079724755686,4.263634381912,1.0151630885966,552.34343504532,-0.0013462959626315,0.018738021338656,481.69059932243
0.18859375,0.019117374222307,0,44.473276194448,0.37080819987633,4.2635050719921,1.0151933049811,552.50975676097,-0.0013495390204384,0.018768853318905,481.83652577675
0.18890625,0.01914935585827,0,44.551795859782,0.37081915248998,4.2633757437442,1.015223521909,552.67596999597,-0.0013527830763299,0.018799684416068,481.98235908056
0.18921875,0.019181338498434,0,44.866536045016,0.37083010539761,4.2632463972365,1.01525373938,552.84207482051,-0.0013560284243426,0.018830514630176,482.12809928635
0.18953125,0.019213322142793,0,45.102536120157,0.37084105859855,4.3418571900172,1.0152839573938,553.00807130518,-0.00135927471403,0.018861343961261,482.2737464465
0.18984375,0.019245306791343,0,45.181055927658,0.37085201209238,4.4204679646739,1.0153141759504,553.17395952021,-0.0013625220461721,0.018892172409354,482.41930061349
0.19015625,0.019277292444551,0,45.180835649241,0.37086296587472,4.4203385637745,1.0153443950471,553.33974757132,-0.0013550352634384,0.018922999972456,482.56475975042
0.19046875,0.019309279101538,0,45.259355553055,0.37087391994892,4.4202091448867,1.0153746146862,553.50541982353,-0.0013582844290779,0.018953826654529,482.71012840565
0.19078125,0.019341266762701,0,45.259135346459,0.3708848743147,4.4200797080763,1.0154048348677,553.67098393876,-0.0013616017866996,0.018984652453704,482.85540421676
0.19109375,0.019373255428035,0,45.337655344358,0.37089582897122,4.4199502534094,1.0154350555913,553.83644009672,-0.0013648234782629,0.019015477370018,483.00058718868
0.19140625,0.019405245097534,0,45.337435231713,0.3709067839181,4.4198207809534,1.0154652768569,554.00178827412,-0.0013681218872528,0.019046301403499,483.14567744403
0.19171875,0.019437235771197,0,45.494695480908,0.37091773915489,4.4196912907736,1.0154954986641,554.16702853929,-0.0013714618038727,0.019077124554179,483.29067499564
0.19203125,0.019469227449018,0,45.573215619442,0.37092869468101,4.4195617829364,1.0155257210129,554.33216108528,-0.0013746930173752,0.019107946822089,483.43557988486
0.19234375,0.019501220130989,0,45.572995647235,0.37093965049595,4.4194322575078,1.0155559439029,554.49718586492,-0.001377981356512,0.019138768207261,483.58039219772
0.19265625,0.019533213817109,0,45.572775721719,0.37095060659887,4.4193027145524,1.0155861673341,554.66210304566,-0.0013811727454665,0.019169588709724,483.7251119422
0.19296875,0.019565208507369,0,45.73003615776,0.37096156298989,4.4191731541362,1.0156163913061,554.82691252088,-0.0013845605615124,0.019200408329513,483.8697392693
0.19328125,0.01959720420177,0,45.808556482868,0.370972519668,4.4190435763239,1.0156466158188,554.991614546,-0.0013878356089627,0.019231227066657,484.01427412554
0.19359375,0.019629200900298,0,45.808336696975,0.37098347663263,4.4189139811801,1.015676840872,555.15620914523,-0.0013910886318775,0.019262044921185,484.15871660475
0.19390625,0.019661198602956,0,45.808116957506,0.37099443388346,4.4187843687702,1.0157070664654,555.32069642343,-0.0013942755008679,0.019292861893131,484.30306675393
0.19421875,0.019693197309739,0,45.807897264374,0.37100539142031,4.4186547391578,1.0157372925989,555.48507630948,-0.0013975908104927,0.019323677982529,484.44732466612
0.19453125,0.019725197020643,0,45.886417774994,0.37101634924185,4.4185250924065,1.0157675192722,555.64934899012,-0.0014008562406012,0.019354493189411,484.59149034599
0.19484375,0.019757197735654,0,46.043678489327,0.37102730734844,4.4183954285806,1.0157977464852,555.81351445207,-0.0014042173422492,0.019385307513799,484.73556389776
0.19515625,0.019789199454778,0,46.122199092348,0.37103826573896,4.4182657477444,1.0158279742377,555.97757292922,-0.00140742651124,0.01941612095573,484.8795453111
0.19546875,0.019821202178001,0,46.121979583943,0.37104922441321,4.4181360499601,1.0158582025294,556.14152428177,-0.0014107720803876,0.019446933515238,485.02343469284
0.19578125,0.019853205905329,0,46.121760121581,0.37106018337065,4.4180063352912,1.0158884313601,556.30536877624,-0.001413981650384,0.019477745192353,485.16723204091
0.19609375,0.019885210636749,0,46.200280862633,0.37107114261092,4.4178766038,1.0159186607297,556.46910628497,-0.0014173406979013,0.019508555987108,485.31093748166
0.19640625,0.019917216372259,0,46.200061492115,0.37108210213315,4.4177468555497,1.0159488906379,556.63273701105,-0.0014206629099675,0.019539365899529,485.45455102612
0.19671875,0.019949223111855,0,46.278582324903,0.37109306193696,4.4176170906025,1.0159791210846,556.79626104607,-0.0014238980067264,0.019570174929652,485.59807269953
0.19703125,0.019981230855527,0,46.278363045974,0.37110402202214,4.4174873090207,1.0160093520694,556.95967839572,-0.001427151030783,0.019600983077503,485.7415025905
0.19734375,0.020013239603278,0,46.435624127713,0.371114982388,4.417357510866,1.0160395835923,557.12298905862,-0.0014305358936217,0.01963179034312,485.88484079044
0.19765625,0.020045249355099,0,46.435404940127,0.37112594303392,4.4172276962005,1.016069815653,557.28619321166,-0.0014338759675019,0.019662596726532,486.02808729229
0.19796875,0.020077260110985,0,46.750146428024,0.37113690395962,4.4170978650854,1.0161000482513,557.44929104044,-0.0014370039573706,0.019693402227771,486.17124211132
0.19828125,0.020109271870933,0,46.828667489006,0.37114786516467,4.4169680175817,1.016130281387,557.61228229693,-0.0014403908370641,0.019724206846866,486.31430542169
0.19859375,0.020141284634933,0,46.985928752908,0.37115882664829,4.4168381537509,1.0161605150599,557.77516733798,-0.0014436172048846,0.019755010583848,486.45727717409
0.19890625,0.02017329840299,0,46.985709747247,0.37116978841031,4.4167082736534,1.0161907492699,557.93794606266,-0.0014469269971018,0.019785813438752,486.6001574797
0.19921875,0.020205313175092,0,46.985490786892,0.37118075044994,4.4165783773499,1.0162209840166,558.10061860504,-0.0014502241617513,0.019816615411611,486.74294636822
0.19953125,0.020237328951236,0,46.985271871814,0.37119171276711,4.4164484649013,1.0162512192998,558.26318505137,-0.0014534890331164,0.01984741650245,486.88564388752
0.19984375,0.020269345731416,0,46.985053001941,0.37120267536077,4.4163185363671,1.0162814551195,558.42564539201,-0.0014568283464451,0.0198782167113,487.02825011626
0.20015625,0.020301363515631,0,46.984834177177,0.37121363823107,4.4161885918075,1.0163116914753,558.58799979576,-0.0014600960455453,0.019909016038203,487.17076506936
0.20046875,0.020333382303875,0,46.98461539751,0.37122460137716,4.4160586312817,1.0163419283672,558.75024821759,-0.0014634589562211,0.019939814483181,487.31318884148
0.20078125,0.020365402096139,0,46.984396662861,0.37123556479863,4.4159286548497,1.0163721657947,558.91239081802,-0.0014667898077409,0.019970612046265,487.45552146275
0.20109375,0.020397422892425,0,47.062918130601,0.37124652849507,4.4157986625699,1.0164024037579,559.07442761055,-0.0014701461388367,0.020001408727498,487.59776298126
0.20140625,0.020429444692722,0,47.141439643285,0.37125749246613,4.415668654503,1.0164326422564,559.23635879514,-0.0014733739220093,0.020032204526894,487.73991343945
0.20171875,0.02046146749703,0,47.219961200789,0.37126845671093,4.4155386307067,1.01646288129,559.39818431392,-0.0014766235966774,0.020062999444496,487.88197290319
0.20203125,0.020493491305342,0,47.298482803044,0.37127942122929,4.4154085912398,1.0164931208585,559.55990423232,-0.0014799153690359,0.020093793480337,488.0239414391
0.20234375,0.020525516117654,0,47.298264292547,0.37129038602078,4.4152785361608,1.0165233609618,559.72151860554,-0.0014832734141748,0.020124586634439,488.16581911527
0.20265625,0.02055754193396,0,47.376785984169,0.37130135108496,4.415148465528,1.0165536015996,559.88302758643,-0.0014865576919548,0.020155378906841,488.30760593822
0.20296875,0.020589568754258,0,47.53404787786,0.37131231642113,4.4150183793994,1.0165838427718,560.04443113477,-0.0014899442943279,0.020186170297572,488.44930201491
0.20328125,0.020621596578543,0,47.61256965861,0.3713232820291,4.4148882778325,1.016614084478,560.20572944367,-0.0014932236755206,0.020216960806664,488.59090732985
0.20359375,0.020653625406808,0,47.691091483821,0.37133424790824,4.4147581608854,1.0166443267181,560.36692253697,-0.001496485690832,0.02024775043415,488.73242196951
0.20390625,0.02068565523905,0,47.769613353436,0.37134521405817,4.414628028615,1.0166745694919,560.52801047168,-0.0014997317332784,0.020278539180058,488.87384598648
0.20421875,0.020717686075264,0,47.769395109933,0.37135618047835,4.4144978810784,1.0167048127992,560.68899315917,-0.001503207430163,0.020309327044421,489.01517950103
0.20453125,0.020749717915445,0,47.769176910718,0.37136714716832,4.4143677183329,1.0167350566398,560.84987097021,-0.0015064428385577,0.020340114027272,489.15642243048
0.20484375,0.020781750759588,0,47.768958755735,0.37137811412797,4.4142375404355,1.0167653010134,561.0106437886,-0.0015097345216733,0.020370900128641,489.2975749232
0.20515625,0.020813784607689,0,47.768740644928,0.37138908135639,4.414107347442,1.0167955459199,561.17131168769,-0.0015130518879497,0.020401685348559,489.43863701096
0.20546875,0.020845819459745,0,47.847262735717,0.37140004885325,4.4139771394101,1.016825791359,561.33187474868,-0.0015164071255603,0.020432469687059,489.57960876421
0.20578125,0.020877855315748,0,47.847044713087,0.37141101661831,4.4925870738752,1.0168560373306,561.49233308806,-0.0015196816225046,0.020463253144171,489.72049018089
0.20609375,0.020909892175698,0,47.925566891922,0.37142198465094,4.5711969934133,1.0168862838344,561.65268668638,-0.0015230415799371,0.020494035719931,489.8612813798
0.20640625,0.020941930039583,0,47.925348957233,0.37143295295064,4.5710667405998,1.0169165308701,561.81293570637,-0.0015263246758957,0.020524817414361,490.00198235739
0.20671875,0.020973968907409,0,47.92513106642,0.37144392151719,4.5709364729707,1.0169467784377,561.97308015946,-0.0015296272969053,0.020555598227505,490.14259320138
0.20703125,0.021006008779164,0,47.924913219432,0.37145489035003,4.5708061905816,1.0169770265369,562.13312009536,-0.0015329698630408,0.020586378159384,490.28311396547
0.20734375,0.021038049654841,0,47.924695416217,0.37146585944854,4.5706758934869,1.0170072751675,562.29305560249,-0.0015363161906786,0.020617157210033,490.42354469246
0.20765625,0.021070091534441,0,47.924477656703,0.37147682881261,4.5705455817422,1.0170375243292,562.4528867415,-0.0015396820387174,0.020647935379486,490.56388544065
0.20796875,0.021102134417958,0,47.924259940863,0.37148779844156,4.5704152554025,1.0170677740219,562.61261365645,-0.0015429496934184,0.02067871266777,490.70413623151
0.20828125,0.021134178305385,0,47.924042268609,0.371498768335,4.5702849145222,1.0170980242453,562.77223637644,-0.0015461833119988,0.02070948907492,490.84429713925
0.20859375,0.021166223196723,0,47.923824639886,0.37150973849263,4.6488947166362,1.0171282749992,562.93175482585,-0.0015495935381937,0.02074026460097,490.98436827089
0.20890625,0.021198269091965,0,47.923607054661,0.3715207089137,4.6487643468379,1.0171585262835,563.09116923478,-0.0015529264208878,0.020771039245945,491.12434960317
0.20921875,0.021230315991103,0,48.002129670338,0.37153167959829,4.6486339626618,1.0171887780979,563.2504796319,-0.001556247389457,0.020801813009883,491.26424121472
0.20953125,0.021262363894132,0,48.001912171904,0.37154265054548,4.6485035641619,1.0172190304421,563.40968613546,-0.0015594817225952,0.020832585892809,491.40404314164
0.20984375,0.021294412800618,0,48.080434852546,0.37155362175829,4.7271133088885,1.0172492833183,563.56878145168,-0.0015724767146809,0.020863357896797,491.54375735878
0.21015625,0.021326462711797,0,48.080217460735,0.37156459322948,4.7269828819007,1.0172795367215,563.72778708312,-0.0015661592983844,0.020894129015894,491.68337797602
0.21046875,0.021358513626481,0,48.158740249581,0.37157556496238,4.7268524407503,1.017309790654,563.88668203776,-0.001569558244948,0.020924899255982,491.82291128125
0.21078125,0.021390565545041,0,48.158522924104,0.37158653695622,4.7267219854898,1.0173400451156,564.04547334288,-0.0015729010220032,0.020955668615188,491.96235511609
0.21109375,0.021422618467476,0,48.237045799181,0.37159750921068,4.7265915161716,1.017370300106,564.20416105433,-0.0015761894679753,0.020986437093546,492.1017095299
0.21140625,0.021454672393777,0,48.236828559842,0.37160848172557,4.8839413478094,1.017400555625,564.36274514931,-0.0015795777875054,0.021017204691082,492.24097462218
0.21171875,0.021486727323938,0,48.236611363472,0.3716194545001,4.8838108505348,1.0174308116724,564.52122582836,-0.0015828567477118,0.021047971407832,492.38015038539
0.21203125,0.021518783257955,0,48.315134367517,0.37163042753401,4.8836803393601,1.017461068248,564.67960304249,-0.0015861946642822,0.021078737243823,492.51923691684
0.21234375,0.021550840195828,0,48.314917256951,0.3716414008268,4.8835498143386,1.0174913253515,564.83787691254,-0.0015895273521141,0.021109502199092,492.65823426266
0.21265625,0.021582898137551,0,48.314700189212,0.3716523743784,4.8834192755216,1.0175215829829,564.99604743758,-0.0015929373641893,0.021140266273669,492.79714248961
0.21296875,0.021614957083114,0,48.314483164225,0.37166334818786,4.883288722961,1.0175518411417,565.15411483705,-0.0015961950210655,0.021171029467585,492.93596157981
0.21328125,0.021647017032517,0,48.314266181977,0.37167432225512,4.8831581567092,1.0175820998279,565.3120790573,-0.001599506835205,0.021201791780867,493.07469166775
0.21359375,0.021679077985756,0,48.39278939984,0.37168529657969,4.8830275768167,1.0176123590411,565.46994015009,-0.001602854190153,0.021232553213557,493.21333277188
0.21390625,0.021711139942828,0,48.39257250283,0.37169627116098,4.8828969833351,1.0176426187813,565.62769816398,-0.0016062827013392,0.021263313765679,493.35188497004
0.21421875,0.021743202903726,0,48.39235564838,0.37170724599883,4.882766376316,1.0176728790482,565.78535332206,-0.0016095684544857,0.021294073437266,493.49034825835
0.21453125,0.021775266868445,0,48.392138836413,0.37171822109279,4.8826357558104,1.0177031398415,565.94290556631,-0.0016128878972539,0.021324832228352,493.62872273482
0.21484375,0.02180733183698,0,48.391922066903,0.37172919644215,4.8825051218687,1.017733401161,566.10035498467,-0.0016162032260358,0.021355590138964,493.76700844094
0.21515625,0.021839397809326,0,48.391705339789,0.37174017204697,4.8823744745419,1.0177636630065,566.25770158304,-0.0016196121592947,0.021386347169135,493.90520545559
0.21546875,0.021871464785482,0,48.39148865501,0.37175114790658,4.8822438138806,1.0177939253778,566.41494558043,-0.0016228822185905,0.021417103318898,494.04331376902
0.21578125,0.021903532765444,0,48.470012169985,0.37176212402054,4.882113139935,1.0178241882748,566.57208686232,-0.0016262880901355,0.021447858588289,494.18133351222
0.21609375,0.021935601749204,0,48.469795569719,0.37177310038857,4.8819824527547,1.017854451697,566.72912563207,-0.0016295989347375,0.021478612977331,494.31926465527
0.21640625,0.021967671736761,0,48.469579011643,0.37178407700995,4.960591909871,1.0178847156445,566.88606189214,-0.0016329578815398,0.021509366486062,494.4571073272
0.21671875,0.021999742728106,0,48.469362495681,0.37179505388481,4.9604611963717,1.0179149801168,567.04289573499,-0.001636265562485,0.021540119114513,494.59486151054
0.21703125,0.022031814723236,0,48.469146021827,0.37180603101217,4.9603304697884,1.0179452451139,567.19962715273,-0.0016397009475735,0.021570870862708,494.73252735269
0.21734375,0.022063887722153,0,48.468929589965,0.37181700839212,4.9601997301695,1.0179755106354,567.35625634931,-0.0016429879840766,0.02160162173069,494.87010478606
0.21765625,0.022095961724843,0,48.46871320008,0.37182798602399,4.9600689775645,1.0180057766812,567.51278326167,-0.0016463643640706,0.021632371718486,495.00759395705
0.21796875,0.022128036731305,0,48.468496852133,0.37183896390738,4.9599382120228,1.0180360432511,567.66920802355,-0.0016497112734244,0.021663120826122,495.14499487868
0.21828125,0.022160112741417,0,48.468280546166,0.37184994204185,4.9598074335902,1.0180663103447,567.82553099191,-0.0016525439403449,0.021693869053544,495.28230743492
0.21859375,0.022192189755523,0,48.468064281804,0.37186092042738,4.9596766423219,1.0180965779619,567.98175138106,-0.0016563006759184,0.021724616401053,495.41953217782
0.21890625,0.022224267773282,0,48.4678480593,0.37187189906323,4.9595458382633,1.0181268461026,568.13786998589,-0.0016597253582429,0.021755362868422,495.55666871262
0.21921875,0.022256346794792,0,48.467631878531,0.37188287794897,4.9594150214629,1.0181571147664,568.29388671886,-0.0016630927421374,0.021786108455756,495.6937171979
0.21953125,0.022288426820056,0,48.467415739412,0.37189385708444,4.959284191969,1.0181873839532,568.44980161133,-0.001666453624706,0.021816853163096,495.83067769638
0.21984375,0.022320507849063,0,48.467199641924,0.37190483646908,4.9591533498297,1.0182176536627,568.60561478407,-0.0016697331286249,0.021847596990469,495.96755025133
0.22015625,0.022352589881817,0,48.466983585987,0.37191581610246,4.9590224950935,1.0182479238947,568.76132614502,-0.0016731699195351,0.021878339937913,496.10433497475
0.22046875,0.022384672918308,0,48.545507729059,0.37192679598423,4.9588916278079,1.0182781946489,568.91693593035,-0.0016764993052985,0.021909082005454,496.24103184783
0.22078125,0.022416756958529,0,48.545291756101,0.37193777611409,4.9587607480204,1.0183084659253,569.07244414266,-0.0016798080466015,0.021939823193126,496.37764094021
0.22109375,0.022448842002483,0,48.623815982067,0.3719487564916,4.9586298557793,1.0183387377234,569.22785087012,-0.0016830888005921,0.021970563500957,496.51416231627
0.22140625,0.022480928050158,0,48.623600091906,0.3719597371165,4.9584989511315,1.0183690100432,569.38315607287,-0.0016864766663595,0.022001302928981,496.65059605844
0.22171875,0.022513015101555,0,48.623384243053,0.37197071798814,4.9583680341239,1.0183992828843,569.53835983258,-0.001689941917583,0.022032041477234,496.78694220272
0.22203125,0.02254510315667,0,48.623168435465,0.37198169910617,4.9582371048041,1.0184295562467,569.69346238631,-0.0016932384907541,0.022062779145744,496.92320074171
0.22234375,0.022577192215497,0,48.701692826586,0.37199268047055,4.9581061632188,1.0184598301299,569.84846359232,-0.001696676041977,0.022093515934543,497.05937182071
0.22265625,0.022609282278031,0,48.78021725887,0.3720036620804,4.9579752094152,1.0184901045339,570.00336368442,-0.0016999963593602,0.022124251843662,497.1954554075
0.22296875,0.022641373344266,0,48.858741732269,0.37201464393577,4.9578442434393,1.0185203794585,570.15816259564,-0.0017033939491599,0.022154986873133,497.33145161123
0.22328125,0.0226734654142,0,48.858526089271,0.37202562603608,4.9577132653381,1.0185506549032,570.31286046302,-0.0017067708333793,0.022185721022986,497.46736046309
0.22359375,0.022705558487831,0,48.858310487295,0.37203660838112,4.9575822751579,1.0185809308681,570.4674573817,-0.0017100753992515,0.022216454293257,497.60318199547
0.22390625,0.022737652565151,0,48.858094926285,0.37204759097013,4.9574512729447,1.0186112073527,570.62195332122,-0.0017134517948129,0.022247186683975,497.73891630808
0.22421875,0.022769747646159,0,48.85787940621,0.37205857380306,4.9573202587451,1.0186414843569,570.77634842721,-0.0017167834303029,0.022277918195173,497.87456341612
0.22453125,0.022801843730847,0,48.857663926988,0.37206955687936,4.9571892326037,1.0186717618806,570.93064269241,-0.0017201466329888,0.022308648826883,498.01012337829
0.22484375,0.022833940819212,0,48.857448488619,0.3720805401987,5.0357983520479,1.0187020399234,571.0848362621,-0.0017234726091218,0.022339378579131,498.14559625956
0.22515625,0.022866038911252,0,48.857233091018,0.37209152376088,5.0356673021618,1.0187323184851,571.23892911187,-0.0017268601510394,0.022370107451961,498.28098212138
0.22546875,0.022898138006957,0,48.857017734158,0.37210250756516,5.0355362404718,1.0187625975655,571.39292137443,-0.0017302138817439,0.02240083544539,498.41628098619
0.22578125,0.022930238106331,0,48.856802417976,0.37211349161168,5.0354051670228,1.0187928771644,571.54681307133,-0.001733599025002,0.022431562559462,498.55149292965
0.22609375,0.022962339209367,0,49.014067457398,0.37212447589951,5.0352740818602,1.0188231572815,571.70060427116,-0.0017370077184889,0.022462288794202,498.68661799972
0.22640625,0.022994441316056,0,49.013852222443,0.37213546042869,5.0351429850288,1.0188534379167,571.8542950979,-0.0017403488154387,0.022493014149646,498.82165622621
0.22671875,0.023026544426396,0,49.013637028031,0.37214644519884,5.0350118765734,1.0188837190697,572.00788555787,-0.0017437066456783,0.02252373862582,498.95660767822
0.22703125,0.023058648540384,0,49.013421874124,0.37215743020927,5.0348807565392,1.0189140007403,572.16137571449,-0.001747099378256,0.022554462222761,499.09147242808
0.22734375,0.023090753658019,0,49.013206760658,0.3721684154598,5.0347496249705,1.0189442829282,572.31476568328,-0.001750430086182,0.022585184940501,499.22625048527
0.22765625,0.023122859779289,0,49.012991687606,0.37217940095011,5.0346184819114,1.0189745656332,572.46805539997,-0.001753896977373,0.022615906779065,499.36094195774
0.22796875,0.023154966904196,0,49.012776654896,0.37219038667989,5.0344873274068,1.0190048488552,572.62124510747,-0.0017572336101795,0.022646627738492,499.49554683514
0.22828125,0.023187075032734,0,49.012561662502,0.3722013726486,5.0343561615,1.0190351325938,572.77433480315,-0.0017605295229888,0.022677347818811,499.63006517761
0.22859375,0.023219184164897,0,49.012346710377,0.37221235885601,5.1129651417167,1.0190654168489,572.92732445935,-0.0017639596420215,0.022708067020053,499.76449711655
0.22890625,0.023251294300684,0,49.012131798453,0.3722233453016,5.1128339531387,1.0190957016201,573.08021419853,-0.001767384811265,0.022738785342255,499.89884262738
0.22921875,0.02328340544009,0,49.011916926704,0.37223433198527,5.1127027532911,1.0191259869074,573.23300414014,-0.0017707537147148,0.022769502785444,500.03310177042
0.22953125,0.023315517583111,0,49.090442252566,0.37224531890642,5.1125715422173,1.0191562727105,573.38569439326,-0.0017739940115899,0.02280021934965,500.1672745773
0.22984375,0.023347630729737,0,49.090227461034,0.37225630606461,5.1124403199608,1.019186559029,573.53828476008,-0.0017774956972738,0.022830935034907,500.30136120381
0.23015625,0.023379744879971,0,49.247493024475,0.37226729345981,5.1123090865644,1.0192168458629,573.69077555459,-0.0017808700260214,0.022861649841249,500.43536158907
0.23046875,0.02341186003381,0,49.247278312945,0.37227828109153,5.1121778420718,1.0192471332119,573.84316675768,-0.0017842622669901,0.022892363768709,500.56927583366
0.23078125,0.023443976191241,0,49.247063641372,0.3722892689594,5.1907867440059,1.0192774210757,573.99545851163,-0.0017875374043743,0.022923076817309,500.7031039432
0.23109375,0.02347609335227,0,49.246849009682,0.37230025706287,5.2693956349302,1.0193077094542,574.14765067616,-0.0017910237962677,0.022953788987095,500.83684607834
0.23140625,0.023508211516885,0,49.246634417854,0.37231124540185,5.2692643574064,1.019337998347,574.29974354979,-0.0017943398676227,0.022984500278087,500.97050216063
0.23171875,0.023540330685087,0,49.246419865812,0.37232223397582,5.2691330689577,1.019368287754,574.45173699365,-0.0017978101137484,0.023015210690325,501.10407235238
0.23203125,0.023572450856866,0,49.246205353553,0.37233322278466,5.2690017696267,1.019398577675,574.6036312726,-0.0018011233422906,0.023045920223832,501.23755660981
0.23234375,0.023604572032226,0,49.245990881011,0.37234421182782,5.2688704594558,1.0194288681097,574.75542628926,-0.0018045271713918,0.023076628878648,501.37095505963
0.23265625,0.023636694211156,0,49.245776448125,0.37235520110486,5.2687391384874,1.0194591590578,574.90712221275,-0.0018078541745181,0.023107336654803,501.5042676955
0.23296875,0.023668817393656,0,49.245562054875,0.3723661906157,5.2686078067631,1.0194894505192,575.0587190276,-0.0018112299568244,0.023138043552329,501.63749461871
0.23328125,0.023700941579719,0,49.245347701199,0.3723771803598,5.2684764643255,1.0195197424936,575.21021678442,-0.0018146763140516,0.023168749571255,501.77063587944
0.23359375,0.023733066769344,0,49.245133387073,0.37238817033695,5.2683451112161,1.0195500349808,575.36161564568,-0.0018180283472939,0.023199454711614,501.90369147991
0.23390625,0.023765192962523,0,49.244919112438,0.37239916054648,5.2682137474766,1.0195803279806,575.51291563959,-0.0018213524907932,0.023230158973439,502.03666149583
0.23421875,0.023797320159254,0,49.244704877258,0.37241015098839,5.2680823731488,1.0196106214927,575.66411673003,-0.0018248006790315,0.02326086235676,502.1695460237
0.23453125,0.023829448359534,0,49.244490681472,0.37242114166238,5.2679509882741,1.0196409155169,575.81521910079,-0.0018281774555182,0.023291564861614,502.30234505526
0.23484375,0.023861577563357,0,49.244276525065,0.3724321325678,5.267819592894,1.019671210053,575.9662228074,-0.0018315072868063,0.023322266488025,502.43505865264
0.23515625,0.023893707770722,0,49.244062407967,0.37244312370443,5.2676881870494,1.0197015051008,576.11712780356,-0.0018349432463212,0.023352967236032,502.5676869073
0.23546875,0.023925838981622,0,49.243848330142,0.37245411507196,5.2675567707816,1.0197318006599,576.26793422187,-0.0018383855971019,0.023383667105665,502.70022984229
0.23578125,0.023957971196052,0,49.24363429156,0.37246510667012,5.3461655016122,1.0197620967303,576.41864221241,-0.0018417114937429,0.023414366096951,502.83268748246
0.23609375,0.023990104414012,0,49.400900607125,0.37247609849846,5.3460340646209,1.0197923933116,576.56925166855,-0.0018451630325477,0.023445064209929,502.96505994147
0.23640625,0.024022238635491,0,49.400686646882,0.37248709055675,5.3459026173296,1.0198226904036,576.71976282707,-0.0018484980966823,0.023475761444623,503.09734720955
0.23671875,0.024054373860494,0,49.400472725728,0.37249808284441,5.3457711597781,1.0198529880061,576.87017559842,-0.001851916419027,0.023506457801076,503.22954938123
0.23703125,0.024086510089012,0,49.478999001114,0.37250907536128,5.3456396920071,1.0198832861188,577.02049012417,-0.0018553151570881,0.023537153279311,503.36166648432
0.23734375,0.02411864732104,0,49.478785158038,0.37252006810725,5.3455082140568,1.0199135847416,577.17070647319,-0.001858688113661,0.023567847879364,503.49369858005
0.23765625,0.024150785556578,0,49.478571353953,0.37253106108149,5.3453767259675,1.0199438838742,577.32082465516,-0.0018621096623604,0.023598541601262,503.62564572401
0.23796875,0.024182924795614,0,49.478357588778,0.37254205428392,5.3452452277795,1.0199741835164,577.47084478976,-0.0018654952607622,0.02362923444504,503.75750795465
0.23828125,0.024215065038152,0,49.556884019996,0.37255304771428,5.3451137195326,1.0200044836679,577.62076692092,-0.0018688740796921,0.023659926410731,503.8892853304
0.23859375,0.024247206284186,0,49.556670332573,0.37256404137209,5.3449822012667,1.0200347843284,577.77059108968,-0.0018722792045998,0.023690617498367,504.02097791052
0.23890625,0.024279348533713,0,49.635196841433,0.37257503525719,5.3448506730218,1.0200650854979,577.92031738115,-0.0018756806304067,0.023721307707979,504.15258574487
0.23921875,0.024311491786725,0,49.634983231576,0.37258602936892,5.3447191348371,1.020095387176,578.06994586168,-0.0018790547385209,0.023751997039601,504.28410886207
0.23953125,0.024343636043221,0,49.713509817919,0.37259702370734,5.3445875867525,1.0201256893625,578.21947657129,-0.0018824589314927,0.02378268549326,504.41554734479
0.23984375,0.024375781303198,0,49.713296285472,0.37260801827208,5.344456028807,1.0201559920572,578.36890957086,-0.0018858789898044,0.023813373068992,504.54690123415
0.24015625,0.024407927566647,0,49.713082791658,0.37261901306234,5.3443244610402,1.0201862952597,578.51824504232,-0.0018891399451662,0.023844059766828,504.67817053415
0.24046875,0.024440074833571,0,49.712869336436,0.3726300080784,5.3441928834909,1.0202165989701,578.66748273548,-0.0018927129036169,0.0238747455868,504.80935542707
0.24078125,0.024472223103961,0,49.71265591978,0.37264100331953,5.3440612961988,1.0202469031878,578.81662311555,-0.001895995502759,0.02390543052894,504.94045580006
0.24109375,0.024504372377816,0,49.712442541621,0.37265199878555,5.3439296992019,1.0202772079129,578.96566593921,-0.001899432271265,0.023936114593282,505.07147181933
0.24140625,0.024536522655127,0,49.712229201955,0.37266299447615,5.3437980925397,1.0203075131449,579.11461144335,-0.0019027752993598,0.02396679777985,505.20240347593
0.24171875,0.024568673935895,0,49.712015900714,0.37267399039104,5.3436664762509,1.0203378188837,579.26345955461,-0.0019062312156263,0.023997480088685,505.33325087788
0.24203125,0.024600826220115,0,49.711802637854,0.37268498652965,5.3435348503737,1.020368125129,579.41221039949,-0.001909685183743,0.024028161519816,505.46401403912
0.24234375,0.024632979507785,0,49.711589413358,0.37269598289206,5.3434032149465,1.0203984318807,579.56086411607,-0.0019130343439992,0.024058842073274,505.59469298518
0.24265625,0.024665133798899,0,49.711376227168,0.37270697947747,5.3432715700081,1.0204287391384,579.70942068474,-0.0019164039012055,0.024089521749094,505.72528780426
0.24296875,0.024697289093449,0,49.711163079241,0.37271797628598,5.3431399155958,1.020459046902,579.85788010273,-0.0019198786452681,0.024120200547303,505.85579856657
0.24328125,0.024729445391441,0,49.789690127028,0.37272897331691,5.4217484092293,1.0204893551711,580.00624257009,-0.0019232720712722,0.024150878467939,505.98622527894
0.24359375,0.024761602692858,0,49.789477055531,0.37273997057037,5.4216167359856,1.0205196639457,580.15450809875,-0.0019266466363748,0.024181555511025,506.11656800599
0.24390625,0.024793760997709,0,49.789264022162,0.37275096804564,5.4214850533824,1.0205499732254,580.30267667511,-0.0019301088318861,0.024212231676605,506.24682682701
0.24421875,0.024825920305981,0,49.789051026922,0.37276196574258,5.4213533614578,1.0205802830099,580.45074845961,-0.0019335163268266,0.024242906964699,506.37700175043
0.24453125,0.024858080617674,0,49.788838069738,0.37277296366088,5.4212216602494,1.0206105932992,580.59872351172,-0.0019368734887373,0.024273581375347,506.50709283385
0.24484375,0.024890241932786,0,49.788625150573,0.37278396180021,5.4210899497942,1.0206409040928,580.74660183448,-0.0019402612897972,0.024304254908583,506.63710014411
0.24515625,0.024922404251308,0,49.788412269413,0.37279496016014,5.4209582301306,1.0206712153907,580.89438353414,-0.0019436386892222,0.02433492756443,506.76702373911
0.24546875,0.024954567573239,0,49.788199426198,0.37280595874047,5.4208265012956,1.0207015271925,581.04206862561,-0.0019470515542758,0.024365599342924,506.89686366935
0.24578125,0.024986731898575,0,49.787986620879,0.37281695754093,5.4206947633261,1.0207318394981,581.18965715599,-0.0019505171263727,0.024396270244102,507.02661998146
0.24609375,0.025018897227315,0,49.787773853444,0.37282795656121,5.4205630162595,1.0207621523072,581.3371492949,-0.0019538910774374,0.024426940267989,507.15629270042
0.24640625,0.025051063559451,0,49.787561123843,0.37283895580071,5.4204312601328,1.0207924656195,581.48454498594,-0.0019573422438949,0.024457609414619,507.28588192537
0.24671875,0.025083230894979,0,49.787348432026,0.37284995525949,5.4202994949828,1.0208227794348,581.63184438894,-0.0019607169856999,0.024488277684026,507.41538765308
0.24703125,0.025115399233897,0,49.787135777969,0.37286095493706,5.4201677208467,1.0208530937529,581.77904752129,-0.0019640978137019,0.024518945076239,507.54480996936
0.24734375,0.025147568576199,0,49.786923161611,0.37287195483321,5.4200359377604,1.0208834085736,581.92615441833,-0.0019675025190562,0.024549611591295,507.67414892123
0.24765625,0.025179738921886,0,49.786710582922,0.37288295494737,5.4199041457607,1.0209137238966,582.07316514331,-0.0019709401784583,0.024580277229224,507.80340456403
0.24796875,0.025211910270952,0,49.786498041879,0.37289395527945,5.4197723448844,1.0209440397217,582.22007980753,-0.0019743384172484,0.024610941990056,507.93257693219
0.24828125,0.025244082623388,0,49.786285538435,0.37290495582923,5.419640535168,1.0209743560486,582.36689841251,-0.0019777898435298,0.024641605873822,508.06166610532
0.24859375,0.025276255979198,0,49.864813230013,0.37291595659615,5.4195087166472,1.0210046728771,582.51362109253,-0.0019811629193137,0.02467226888056,508.19067208454
0.24890625,0.025308430338375,0,49.864600801647,0.37292695758006,5.4193768893586,1.021034990207,582.66024780761,-0.0019846390899649,0.024702931010295,508.31959498576
0.24921875,0.025340605700914,0,49.864388410742,0.37293795878065,5.4192450533376,1.021065308038,582.80677873305,-0.0019880135644471,0.024733592263068,508.44843478763
0.24953125,0.025372782066812,0,49.864176057311,0.3729489601976,5.419113208621,1.02109562637,582.95321385215,-0.0019914421759943,0.024764252638899,508.57719160283
0.24984375,0.025404959436065,0,49.863963741263,0.37295996183055,5.4977215127246,1.0211259452026,583.09955323265,-0.0019948857904422,0.024794912137829,508.70586545854
0.25015625,0.025437137808671,0,49.94249162006,0.37297096367928,5.4975896507232,1.0211562645356,583.24579697009,-0.0019982930275389,0.024825570759888,508.83445638883
0.25046875,0.025469317184622,0,50.021019536195,0.37298196574327,5.4974577801333,1.0211865843688,583.39194511314,-0.0020017027180217,0.024856228505106,508.96296446985
0.25078125,0.025501497563923,0,50.020807332138,0.37299296802276,5.4973259009897,1.021216904702,583.53799771161,-0.0020051058725775,0.024886885373519,509.09138973001
0.25109375,0.025533678946558,0,50.02059516533,0.37300397051682,5.4971940133284,1.0212472255348,583.68395479873,-0.002008569849319,0.024917541365155,509.2197322596
0.25140625,0.025565861332533,0,50.099123193219,0.3730149732254,5.4970621171847,1.0212775468672,583.82981652974,-0.0020119354673388,0.024948196480051,509.34799204946
0.25171875,0.025598044721839,0,50.098911100804,0.37302597614818,5.4969302125932,1.0213078686988,583.97558281217,-0.0020154309856972,0.024978850718233,509.47616921729
0.25203125,0.025630229114476,0,50.098699045537,0.37303697928502,5.4967982995897,1.0213381910294,584.12125388555,-0.002018805579481,0.025009504079738,509.60426375035
0.25234375,0.025662414510437,0,50.177227184837,0.37304798263537,5.5754065356895,1.0213685138588,584.26682972368,-0.002022176335521,0.025040156564597,509.73227572875
0.25265625,0.025694600909723,0,50.177015203732,0.37305898619902,5.6540147634469,1.0213988371867,584.4123103156,-0.0020256523793741,0.025070808172841,509.86020522835
0.25296875,0.025726788312322,0,50.255543417124,0.37306998997577,5.6538828254163,1.0214291610129,584.55769585851,-0.0020290209168081,0.025101458904503,509.98805224243
0.25328125,0.02575897671824,0,50.255331510048,0.37308099396528,5.6537508791131,1.0214594853371,584.70298632319,-0.0020324386522956,0.025132108759614,510.1158168726
0.25359375,0.025791166127463,0,50.255119639912,0.37309199816713,5.6536189245715,1.0214898101592,584.8481817659,-0.0020358913288706,0.025162757738206,510.24349915746
0.25390625,0.025823356539997,0,50.254907806699,0.37310300258118,5.6534869618267,1.0215201354788,584.99328236505,-0.0020392168622223,0.025193405840313,510.37109910698
0.25421875,0.025855547955834,0,50.254696010365,0.37311400720713,5.6533549909126,1.0215504612958,585.13828798599,-0.0020427003425869,0.025224053065966,510.49861684908
0.25453125,0.02588774037497,0,50.333224408358,0.37312501204448,5.6532230118638,1.0215807876099,585.28319877098,-0.0020462197895241,0.025254699415197,510.62605240173
0.25484375,0.0259199337974,0,50.411752843153,0.37313601709321,5.6530910247141,1.0216111144208,585.42801487667,-0.0020496153031377,0.025285344888038,510.75340575775
0.25515625,0.025952128223128,0,50.411541157232,0.37314702235294,5.7316991869782,1.0216414417284,585.57273630992,-0.0020529881860853,0.025315989484526,510.88067701358
0.25546875,0.025984323652141,0,50.411329508056,0.3731580278232,5.7315671837294,1.0216717695324,585.71736305662,-0.0020564463581469,0.025346633204684,511.00786624365
0.25578125,0.026016520084437,0,50.411117895584,0.37316903350412,5.7314351724825,1.0217020978325,585.8618952948,-0.0020598181134901,0.02537727604855,511.13497345392
0.25609375,0.026048717520016,0,50.410906319768,0.37318003939492,5.7313031532707,1.0217324266285,586.00633298804,-0.0020632333936761,0.025407918016154,511.26199872577
0.25640625,0.026080915958873,0,50.489434938047,0.37319104549536,5.731171126128,1.0217627559202,586.15067624167,-0.0020666332131678,0.025438559107533,511.38894209233
0.25671875,0.026113115401003,0,50.489223435448,0.37320205180552,5.7310390910882,1.0217930857074,586.29492501538,-0.002070177550665,0.025469199322712,511.51580365923
0.25703125,0.026145315846404,0,50.48901196939,0.37321305832497,5.8096472056643,1.0218234159897,586.43907949812,-0.0020736371362576,0.025499838661729,511.64258338793
0.25734375,0.026177517295071,0,50.48880053987,0.37322406505335,5.8095151549299,1.021853746767,586.58313978557,-0.0020769981821212,0.02553047712461,511.76928134898
0.25765625,0.026209719747004,0,50.567329304302,0.37323507199025,5.8093830963987,1.021884078039,586.72710584172,-0.0020803909132444,0.025561114711396,511.89589762198
0.25796875,0.026241923202194,0,50.567117947707,0.37324607913554,5.8092510301041,1.0219144098055,586.87097773824,-0.0020838023393591,0.025591751422111,512.02243225565
0.25828125,0.026274127660639,0,50.566906627521,0.37325708648897,5.8091189560786,1.0219447420663,587.01475548626,-0.0020872940729322,0.025622387256791,512.14888531458
0.25859375,0.026306333122337,0,50.645435501196,0.37326809405009,5.808986874356,1.021975074821,587.15843924576,-0.0020907268109163,0.025653022215466,512.27525680747
0.25890625,0.026338539587284,0,50.645224253729,0.37327910181871,5.808854784969,1.0220054080695,587.30202906355,-0.0020941132966595,0.025683656298171,512.40154678899
0.25921875,0.026370747055477,0,50.723753200045,0.37329010979465,5.8874628454306,1.0220357418115,587.44552493962,-0.0020975446553177,0.025714289504937,512.52775533715
0.25953125,0.026402955526911,0,50.723542025158,0.37330111797752,5.8873307408133,1.0220660760468,587.58892699111,-0.0021009446990784,0.025744921835795,512.65388248474
0.25984375,0.026435165001582,0,50.723330886496,0.37331212636713,5.8871986286299,1.0220964107752,587.73223517096,-0.0021044545391127,0.02577555329078,512.77992831324
0.26015625,0.026467375479489,0,50.723119784051,0.37332313496306,5.8870665089134,1.0221267459964,587.87544964566,-0.0021079373268894,0.02580618386992,512.90589284065
0.26046875,0.026499586960624,0,50.722908717762,0.37333414376493,5.8869343816958,1.0221570817101,588.01857054405,-0.0021112577930214,0.025836813573251,513.03177607081
0.26078125,0.026531799444991,0,50.801437845088,0.37334515277274,5.9655424044903,1.0221874179162,588.16159774593,-0.0021147182905277,0.025867442400804,513.15757814902
0.26109375,0.026564012932578,0,50.879967008516,0.37335616198616,5.9654102623688,1.0222177546143,588.30453143374,-0.0021181254103065,0.02589807035261,513.28329906787
0.26140625,0.026596227423388,0,50.879756050511,0.37336717140476,5.9652781128432,1.0222480918043,588.44737155887,-0.0021216261010122,0.025928697428706,513.4089389116
0.26171875,0.026628442917413,0,50.879545128528,0.37337818102835,5.965145955946,1.0222784294859,588.59011830824,-0.0021250413368581,0.025959323629121,513.53449768603
0.26203125,0.026660659414651,0,50.879334242567,0.3733891908566,5.9650137917096,1.0223087676589,588.73277165319,-0.0021285094090599,0.025989948953881,513.65997548213
0.26234375,0.026692876915101,0,50.879123392549,0.37340020088922,5.9648816201659,1.022339106323,588.87533174411,-0.0021318825092181,0.026020573403028,513.78537230725
0.26265625,0.026725095418753,0,50.878912578457,0.37341121112596,5.9647494413464,1.0223694454779,589.01779854696,-0.0021353029264649,0.026051196976589,513.91068824363
0.26296875,0.026757314925612,0,50.878701800253,0.37342222156674,5.9646172552834,1.0223997851236,589.16017211315,-0.0021387904409475,0.0260818196746,514.03592335814
0.26328125,0.026789535435666,0,50.8784910579,0.37343323221095,5.964485062008,1.0224301252596,589.30245254798,-0.0021422571029109,0.026112441497091,514.16107766417
0.26359375,0.026821756948917,0,50.878280351388,0.3734442430586,5.9643528615526,1.0224604658858,589.44463995257,-0.0021456646919007,0.026143062444088,514.28615120944
0.26390625,0.026853979465361,0,50.87806968066,0.37345525410923,5.9642206539487,1.022490807002,589.58673435782,-0.0021490488080161,0.026173682515634,514.41114406032
0.26421875,0.026886202984993,0,50.956599203159,0.37346626536275,5.9640884392271,1.0225211486078,589.72873571964,-0.0021525465087445,0.026204301711756,514.53605628026
0.26453125,0.026918427507812,0,50.956388603908,0.37347727681874,5.9639562174199,1.022551490703,589.87064425083,-0.002155949225158,0.026234920032487,514.66088788692
0.26484375,0.02695065303381,0,50.956178040335,0.37348828847684,5.963823988558,1.0225818332875,590.01245990835,-0.0021593984226841,0.026265537477858,514.78563895386
0.26515625,0.026982879562988,0,51.034707669906,0.37349930033695,6.042431910153,1.0226121763609,590.15418282779,-0.0021627822190449,0.026296154047903,514.91030950514
0.26546875,0.027015107095343,0,51.034497177609,0.3735103123987,6.0422996672755,1.0226425199231,590.29581291458,-0.0021663372103531,0.026326769742656,515.03489966101
0.26578125,0.027047335630862,0,51.034286720913,0.37352132466194,6.0421674174365,1.0226728639737,590.43735042919,-0.0021697420284487,0.026357384562141,515.15940936672
0.26609375,0.027079565169557,0,51.034076299757,0.3735323371263,6.0420351606674,1.0227032085126,590.57879534051,-0.0021731531118534,0.026387998506402,515.2838387337
0.26640625,0.027111795711413,0,51.112606071611,0.37354334979149,6.0419028969992,1.0227335535395,590.72014769827,-0.0021765835828413,0.026418611575463,515.4081878097
0.26671875,0.027144027256429,0,51.112395721468,0.3735543626574,6.0417706264623,1.0227638990541,590.86140756167,-0.0021800168980002,0.026449223769359,515.53245662981
0.26703125,0.027176259804605,0,51.112185406783,0.37356537572348,6.0416383490877,1.0227942450563,591.00257497356,-0.0021834900333682,0.026479835088122,515.65664526531
0.26734375,0.027208493355931,0,51.190715285002,0.37357638898974,6.0415060649057,1.0228245915458,591.14365001235,-0.002186969737988,0.026510445531784,515.78075375272
0.26765625,0.027240727910415,0,51.190505041127,0.37358740245591,6.041373773947,1.0228549385222,591.28463278572,-0.0021903708480642,0.026541055100379,515.90478210892
0.26796875,0.027272963468043,0,51.190294832619,0.37359841612148,6.0412414762425,1.0228852859855,591.42552326427,-0.0021938583731572,0.026571663793936,516.02873045027
0.26828125,0.027305200028815,0,51.190084659414,0.3736094299862,6.0411091718217,1.0229156339354,591.56632156957,-0.0021972953530068,0.026602271612494,516.15259876614
0.26859375,0.027337437592724,0,51.18987452152,0.37362044405016,6.0409768607156,1.0229459823715,591.70702777573,-0.002200692159537,0.026632878556075,516.27638712049
0.26890625,0.027369676159775,0,51.347144733836,0.37363145831272,6.040844542954,1.0229763312938,591.84764185678,-0.0022041581801388,0.02666348462472,516.4000955939
0.26921875,0.027401915729958,0,51.346934666422,0.37364247277374,6.1194523760475,1.0230066807018,591.98816389939,-0.0022076633317427,0.026694089818458,516.52372422502
0.26953125,0.027434156303268,0,51.346724634209,0.37365348743322,6.1193200450658,1.0230370305955,592.12859407762,-0.0022110227060895,0.026724694137317,516.64727300864
0.26984375,0.027466397879711,0,51.346514637144,0.37366450229056,6.1191877075191,1.0230673809745,592.26893228682,-0.0022144917451684,0.026755297581341,516.77074207211
0.27015625,0.027498640459273,0,51.425044832687,0.37367551734542,6.1190553634367,1.0230977318386,592.40917866235,-0.0022179399348422,0.026785900150552,516.89413141854
0.27046875,0.027530884041959,0,51.424834905875,0.37368653259782,6.1189230128492,1.0231280831875,592.54933327101,-0.0022213766408793,0.026816501844983,517.01744111794
0.27078125,0.027563128627759,0,51.424625014113,0.37369754804741,6.118790655786,1.0231584350211,592.6893961421,-0.0022248246803745,0.026847102664669,517.14067120192
0.27109375,0.027595374216677,0,51.424415157375,0.37370856369379,6.1186582922764,1.0231887873391,592.82936733727,-0.002228282536368,0.026877702609648,517.26382173259
0.27140625,0.027627620808704,0,51.424205335654,0.37371957953705,6.1185259223505,1.0232191401412,592.96924692258,-0.0022317584495221,0.026908301679943,517.38689276652
0.27171875,0.027659868403835,0,51.42399554889,0.37373059557649,6.1183935460376,1.0232494934272,593.10903498855,-0.0022351774858384,0.026938899875589,517.50988431951
0.27203125,0.027692117002071,0,51.423785797079,0.37374161181226,6.118261163367,1.0232798471969,593.24873154761,-0.0022386212842546,0.026969497196619,517.63279647073
0.27234375,0.027724366603411,0,51.423576080168,0.37375262824377,6.1181287743682,1.02331020145,593.38833667219,-0.0022420722524459,0.027000093643068,517.75562926548
0.27265625,0.027756617207847,0,51.423366398123,0.37376364487091,6.1179963790703,1.0233405561863,593.52785042542,-0.0022455154761066,0.027030689214967,517.87838274587
0.27296875,0.027788868815371,0,51.501896908415,0.37377466169357,6.1178639775027,1.0233709114055,593.66727282302,-0.0022490213324336,0.027061283912343,518.00105698409
0.27328125,0.02782112142599,0,51.50168729605,0.37378567871116,6.1177315696947,1.0234012671074,593.80660404824,-0.0022523999697883,0.027091877735232,518.1236519747
0.27359375,0.027853375039698,0,51.501477718448,0.37379669592373,6.1175991556744,1.0234316232917,593.94584397978,-0.0022559011764328,0.027122470683672,518.24616782527
0.27390625,0.027885629656487,0,51.501268175609,0.37380771333072,6.1174667354719,1.0234619799583,594.08499283218,-0.0022593325991853,0.027153062757687,518.36860455916
0.27421875,0.027917885276357,0,51.50105866748,0.37381873093213,6.1173343091155,1.0234923371068,594.2240505807,-0.0022627801536941,0.027183653957314,518.49096222331
0.27453125,0.027950141899304,0,51.500849194039,0.37382974872763,6.117201876634,1.023522694737,594.36301726869,-0.002266276825278,0.027214244282584,518.61324087881
0.27484375,0.027982399525326,0,51.500639755269,0.37384076671705,6.1170694380563,1.0235530528487,594.50189302938,-0.0022697195056252,0.027244833733527,518.73544056181
0.27515625,0.028014658154417,0,51.500430351119,0.37385178490001,6.1169369934109,1.0235834114417,594.6406778837,-0.0022731517630347,0.02727542231018,518.8575613201
0.27546875,0.02804691778658,0,51.500220981559,0.37386280327628,6.1168045427263,1.0236137705156,594.77937187392,-0.0022766000791089,0.027306010012578,518.9796032105
0.27578125,0.028079178421802,0,51.500011646572,0.37387382184567,6.1166720860313,1.0236441300703,594.91797503879,-0.002280097775138,0.02733659684074,519.10156629473
0.27609375,0.028111440060091,0,51.578542503591,0.3738848406079,6.1165396233538,1.0236744901056,595.0564875008,-0.0022835366208449,0.027367182794714,519.22345059019
0.27640625,0.028143702701434,0,51.578333237631,0.37389585956259,6.116407154722,1.023704850621,595.19490929844,-0.0022869475462911,0.027397767874524,519.34525614863
0.27671875,0.028175966345833,0,51.578124006152,0.37390687870969,6.1162746801651,1.0237352116165,595.33324044137,-0.0022904289524163,0.027428352080203,519.46698307156
0.27703125,0.02820823099328,0,51.57791480912,0.3739178980488,6.1161421997107,1.0237655730918,595.4714810244,-0.0022938911153324,0.027458935411782,519.58863134947
0.27734375,0.028240496643779,0,51.577705646494,0.37392891757984,6.1160097133868,1.0237959350467,595.60963108327,-0.0022973808944977,0.027489517869299,519.71020106136
0.27765625,0.02827276329732,0,51.577496518261,0.37393993730239,6.1158772212221,1.0238262974808,595.74769076375,-0.0023007703319212,0.027520099452779,519.83169222232
0.27796875,0.028305030953905,0,51.577287424366,0.37395095721629,6.115744723244,1.023856660394,595.88565998539,-0.0023042582936712,0.027550680162263,519.95310493085
0.27828125,0.028337299613529,0,51.577078364794,0.37396197732135,6.1156122194804,1.023887023786,596.02353889456,-0.0023077116587454,0.027581259997779,520.07443919366
0.27859375,0.028369569276186,0,51.576869339528,0.37397299761721,6.19421986744,1.0239173876566,596.16132752886,-0.0023111695411704,0.027611838959354,520.1956950851
0.27890625,0.028401839941877,0,51.576660348516,0.3739840181037,6.1940873521893,1.0239477520055,596.29902594217,-0.0023146230954237,0.027642417047031,520.31687263847
0.27921875,0.028434111610598,0,51.576451391729,0.37399503878044,6.1939548312365,1.0239781168324,596.43663420112,-0.0023180731463604,0.027672994260836,520.43797191036
0.27953125,0.028466384282344,0,51.576242469148,0.3740060596474,6.1938223046092,1.0240084821373,596.57415232798,-0.0023215609591006,0.027703570600804,520.55899295442
0.27984375,0.02849865795711,0,51.576033580748,0.37401708070425,6.1936897723351,1.0240388479197,596.71158047708,-0.0023249477711748,0.027734146066961,520.67993578846
0.28015625,0.028530932634898,0,51.654564883958,0.37402810195058,6.1935572344414,1.0240692141795,596.84891854643,-0.0023284707283142,0.027764720659349,520.80080051949
0.28046875,0.028563208315704,0,51.654356063805,0.37403912338631,6.2721648484358,1.0240995809164,596.98616672704,-0.0023319249266765,0.027795294377997,520.9215871419
0.28078125,0.028595484999522,0,51.654147277739,0.37405014501123,6.2720322993851,1.0241299481301,597.12332501835,-0.0023354037170437,0.027825867222934,521.04229573206
0.28109375,0.028627762686351,0,51.653938525729,0.37406116682506,6.3506399022772,1.0241603158205,597.2603934992,-0.0023388653046667,0.027856439194194,521.16292632162
0.28140625,0.028660041376183,0,51.653729807745,0.37407218882738,6.3505073421788,1.0241906839873,597.39737226788,-0.0023422628617798,0.027887010291811,521.2834789531
0.28171875,0.02869232106902,0,51.653521123756,0.37408321101827,6.3503747765972,1.0242210526303,597.53426123518,-0.0023458082923134,0.027917580515816,521.40395373384
0.28203125,0.02872460176486,0,51.653312473729,0.37409423339721,6.4289823630398,1.0242514217491,597.67106061042,-0.0023492675948405,0.027948149866243,521.52435064259
0.28234375,0.028756883463698,0,51.65310385764,0.37410525596415,6.4288497865726,1.0242817913436,597.80777040931,-0.0023527026157372,0.027978718343125,521.64466974082
0.28265625,0.028789166165528,0,51.652895275451,0.37411627871881,6.5074573621836,1.0243121614135,597.9443906534,-0.0023561775588852,0.028009285946495,521.76491110208
0.28296875,0.028821449870353,0,51.652686727152,0.37412730166076,6.5073247749386,1.0243425319586,598.08092139591,-0.0023596897865333,0.028039852676381,521.88507477697
0.28328125,0.028853734578163,0,51.652478212706,0.37413832479014,6.5071921823452,1.0243729029786,598.21736277873,-0.0023631185789264,0.028070418532817,522.00516077568
0.28359375,0.028886020288956,0,51.731009889552,0.37414934810638,6.5070595844296,1.0244032744733,598.3537148008,-0.0023665369047773,0.028100983515837,522.12516916264
0.28390625,0.028918307002735,0,51.730801442714,0.37416037160923,6.5069269812185,1.0244336464424,598.48997746498,-0.0023700393695846,0.028131547625474,522.24510001724
0.28421875,0.028950594719492,0,51.730593029637,0.37417139529864,6.5067943727391,1.0244640188857,598.62615090459,-0.002373519823223,0.02816211086176,522.36495336716
0.28453125,0.028982883439224,0,51.730384650302,0.37418241917462,6.5066617590167,1.024494391803,598.76223511821,-0.0023770283138535,0.028192673224723,522.48472925245
0.28484375,0.02901517316193,0,51.730176304675,0.3741934432362,6.506529140079,1.024524765194,598.89823031124,-0.0023803856444824,0.028223234714402,522.60442769385
0.28515625,0.029047463887607,0,51.729967992713,0.37420446748361,6.5063965159515,1.0245551390585,599.03413635776,-0.0023838419798419,0.028253795330829,522.72404879787
0.28546875,0.029079755616248,0,51.729759714405,0.37421549191663,6.5062638866605,1.0245855133962,599.16995337192,-0.0023873110746714,0.028284355074035,522.84359258999
0.28578125,0.029112048347854,0,51.72955146972,0.37422651653504,6.5061312522327,1.0246158882068,599.30568140182,-0.0023908194199423,0.028314913944048,522.96305913126
0.28609375,0.029144342082421,0,51.729343258625,0.37423754133864,6.5059986126938,1.0246462634903,599.4413205258,-0.0023943180917144,0.028345471940907,523.08244844398
0.28640625,0.029176636819944,0,51.729135081099,0.37424856632686,6.5058659680705,1.0246766392462,599.57687078149,-0.0023978487444368,0.028376029064641,523.20176060321
0.28671875,0.029208932560424,0,51.807667094577,0.37425959149979,6.5057333183881,1.0247070154744,599.712332323,-0.0024012462519668,0.028406585315287,523.32099559286
0.28703125,0.029241229303853,0,51.80745898409,0.37427061685715,6.5056006636727,1.0247373921745,599.84770511645,-0.0024046617846191,0.028437140692869,523.44015351448
0.28734375,0.029273527050233,0,51.885991064571,0.37428164239854,6.5054680039506,1.0247677693465,599.98298914108,-0.0024082203108745,0.028467695197427,523.55923445964
0.28765625,0.029305825799558,0,51.885783021017,0.3742926681239,6.5840754967278,1.0247981469899,600.11818465939,-0.0024115918762591,0.02849824882899,523.67823837288
0.28796875,0.029338125551825,0,51.964315168359,0.37430369403307,6.5839428270693,1.0248285251047,600.25329153246,-0.0024150823337696,0.028528801587594,523.7971653841
0.28828125,0.02937042630703,0,51.964107191627,0.3743147201255,6.583810152481,1.0248589036905,600.3883098905,-0.0024185731905069,0.028559353473267,523.91601551741
0.28859375,0.029402728065175,0,51.963899248258,0.37432574640135,6.5836774729886,1.0248892827471,600.52323977334,-0.0024220946802417,0.028589904486046,524.03478882282
0.28890625,0.02943503082625,0,51.963691338227,0.37433677285998,6.5835447886177,1.0249196622742,600.6580813466,-0.0024254757983797,0.028620454625959,524.15348530496
0.28921875,0.029467334590258,0,52.042223618995,0.37434779950157,6.5834120993938,1.0249500422716,600.79283447982,-0.0024290129463353,0.028651003893041,524.27210509669
0.28953125,0.029499639357192,0,52.042015775573,0.37435882632559,6.5832794053424,1.0249804227391,600.92749936484,-0.0024324855892176,0.028681552287321,524.39064817646
0.28984375,0.029531945127053,0,52.041807965399,0.37436985333188,6.5831467064888,1.0250108036764,601.06207600405,-0.0024359825347257,0.02871209980884,524.50911462376
0.29015625,0.02956425189983,0,52.12034034594,0.37438088052034,6.5830140028582,1.0250411850833,601.19656449647,-0.0024394270798002,0.02874264645762,524.62750445353
0.29046875,0.029596559675532,0,52.120132602197,0.3743919078906,6.5828812944759,1.0250715669596,601.33096483242,-0.0024429358354792,0.028773192233705,524.74581776425
0.29078125,0.029628868454144,0,52.119924891635,0.37440293544241,6.5827485813672,1.0251019493049,601.46527717004,-0.0024463525498107,0.028803737137117,524.86405454981
0.29109375,0.029661178235672,0,52.198457371692,0.3744139631758,6.582615863557,1.025132332119,601.59950147213,-0.0024498014108561,0.028834281167896,524.98221488831
0.29140625,0.02969348901994,0,52.276989885024,0.37442499109019,6.5824831410673,1.0251627154017,601.73363813319,-0.0024527266246934,0.028864824325941,525.10029864479
0.29171875,0.029725800807441,0,52.27678227369,0.37443601918572,6.5823504139294,1.0251930991529,601.86768623933,-0.0024567805925942,0.028895366611661,525.21830643919
0.29203125,0.029758113597689,0,52.276574695555,0.37444704746186,6.582217682165,1.0252234833721,602.00164682829,-0.0024602776408038,0.028925908024724,525.33623772814
0.29234375,0.02979042739084,0,52.276367150462,0.37445807591856,6.5820849457993,1.0252538680592,602.13551962865,-0.0024637876130497,0.028956448565284,525.45409276412
0.29265625,0.029822742186888,0,52.276159638379,0.37446910455544,6.581952204857,1.025284253214,602.2693047579,-0.0024672127993906,0.02898698823337,525.57187156422
0.29296875,0.02985505798583,0,52.275952159272,0.37448013337242,6.5818194593624,1.0253146388361,602.40300220393,-0.0024706451155609,0.029017527029015,525.68957419133
0.29328125,0.029887374787664,0,52.433225028097,0.37449116236927,6.5816867093403,1.0253450249254,602.53661196656,-0.0024741893778712,0.029048064952251,525.80720074229
0.29359375,0.02991969259239,0,52.433017614886,0.37450219154578,6.5815539548156,1.0253754114815,602.67013425361,-0.0024776090114548,0.029078602003114,525.92475119001
0.29390625,0.029952011399999,0,52.511550392065,0.37451322090157,6.5814211958129,1.0254057985043,602.80356899493,-0.0024810920176402,0.029109138181632,526.04222563423
0.29421875,0.02998433121049,0,52.511343044647,0.37452425043642,6.5812884323564,1.0254361859936,602.93691626827,-0.0024846023099563,0.029139673487836,526.15962410988
0.29453125,0.03001665202387,0,52.511135730065,0.37453528015036,6.5811556644707,1.025466573949,603.0701761595,-0.0024880976519446,0.029170207921771,526.27694665573
0.29484375,0.030048973840122,0,52.589668605793,0.37454631004298,6.5810228921796,1.0254969623703,603.20334873316,-0.0024915536438984,0.029200741483457,526.39419330481
0.29515625,0.030081296659248,0,52.589461356852,0.37455734011421,6.5808901155083,1.0255273512573,603.3364340144,-0.0024950423486728,0.029231274172927,526.51136414304
0.29546875,0.030113620481248,0,52.589254140681,0.37456837036346,6.5807573344808,1.0255577406097,603.46943209407,-0.0024984892022994,0.029261805990217,526.62845918042
0.29578125,0.030145945306117,0,52.58904695725,0.37457940079108,6.5806245491214,1.0255881304273,603.60234295867,-0.0025020044852445,0.029292336935363,526.74547850234
0.29609375,0.030178271133851,0,52.588839806537,0.3745904313963,6.5804917594537,1.0256185207099,603.73516672992,-0.0025054820448383,0.029322867008392,526.86242211901
0.29640625,0.030210597964451,0,52.58863268851,0.3746014621793,6.5803589655016,1.0256489114572,603.86790341616,-0.0025089956228153,0.029353396209343,526.97929010289
0.29671875,0.030242925797908,0,52.588425603169,0.37461249313963,6.5802261672897,1.0256793026689,604.00055318057,-0.0025123876459196,0.02938392453824,527.09608245907
0.29703125,0.030275254634226,0,52.588218550469,0.37462352427728,6.5800933648419,1.0257096943449,604.13311593673,-0.0025158783930691,0.029414451995119,527.21279930332
0.29734375,0.030307584473399,0,52.58801153036,0.37463455559161,6.5799605581818,1.0257400864848,604.26559178655,-0.0025193821050113,0.02944497858002,527.32944064671
0.29765625,0.030339915315423,0,52.587804542863,0.37464558708289,6.6585679048137,1.0257704790885,604.3979808162,-0.002522856233227,0.029475504292963,527.44600652697
0.29796875,0.030372247160297,0,52.587597587924,0.37465661875067,6.6584350898008,1.0258008721557,604.53028307845,-0.0025263137333509,0.029506029133989,527.56249700204
0.29828125,0.03040458000802,0,52.744870980474,0.37466765059485,6.658302270647,1.0258312656861,604.66249856195,-0.0025298496878714,0.029536553103132,527.67891214088
0.29859375,0.030436913858582,0,52.744664090586,0.37467868261497,6.6581694473763,1.0258616596795,604.79462741694,-0.0025333185989536,0.029567076200416,527.79525194788
0.29890625,0.030469248711987,0,52.744457233177,0.37468971481105,6.6580366200118,1.0258920541356,604.92666965295,-0.0025367829490654,0.029597598425881,527.91151648959
0.29921875,0.03050158456823,0,52.822990565718,0.37470074718296,6.6579037885771,1.0259224490543,605.058625279,-0.0025403226973859,0.029628119779556,528.02770583336
0.29953125,0.030533921427309,0,52.8227837732,0.37471177973014,6.657770953096,1.0259528444352,605.1904944551,-0.0025437773024261,0.029658640261478,528.14381998607
0.29984375,0.030566259289217,0,52.822577013106,0.37472281245276,6.6576381135917,1.0259832402782,605.32227717289,-0.0025472430409996,0.029689159871671,528.25985902154
0.30015625,0.030598598153958,0,52.822370285389,0.37473384535024,6.7362454275682,1.0260136365829,605.45397350678,-0.0025506934790531,0.029719678610178,528.37582298021
0.30046875,0.030630938021527,0,52.82216359002,0.37474487842259,6.7361125800877,1.0260440333492,605.58558345302,-0.002554205812579,0.029750196477026,528.49171192074
0.30078125,0.030663278891918,0,52.821956926995,0.37475591166946,6.7359797286539,1.0260744305768,605.71710712275,-0.0025577046727475,0.029780713472249,528.607525878
0.30109374999999,0.030695620765131,0,52.821750296274,0.37476694509075,6.7358468732901,1.0261048282654,605.8485445634,-0.002561201043442,0.029811229595878,528.72326490591
0.30140624999999,0.030727963641163,0,52.821543697828,0.37477797868642,6.7357140140192,1.0261352264149,605.9798958151,-0.0025647076404872,0.029841744847948,528.83892904208
0.30171874999999,0.030760307520012,0,52.821337131649,0.37478901245591,6.7355811508645,1.0261656250249,606.1111609908,-0.0025681514399014,0.029872259228491,528.9545183266
0.30203124999999,0.030792652401672,0,52.821130597702,0.37480004639916,6.7354482838492,1.0261960240952,606.24234008905,-0.0025716126746964,0.029902772737536,529.07003282149
0.30234374999999,0.030824998286143,0,52.820924095958,0.37481108051602,6.735315412996,1.0262264236256,606.37343314105,-0.0025751242968073,0.029933285375121,529.18547258442
0.30265624999999,0.030857345173422,0,52.820717626394,0.3748221148062,6.735182538328,1.0262568236158,606.50444024231,-0.0025786261426886,0.029963797141277,529.30083764812
0.30296874999999,0.030889693063507,0,52.82051118899,0.37483314926942,6.735049659868,1.0262872240657,606.63536148427,-0.0025820610360525,0.029994308036035,529.41612803836
0.30328124999999,0.030922041956389,0,52.820304783715,0.37484418390563,6.813656935119,1.0263176249748,606.76619679753,-0.0025856184181161,0.030024818059428,529.53134386086
0.30359374999999,0.030954391852077,0,52.820098410542,0.37485521871467,6.813524049143,1.0263480263431,606.89694638519,-0.0025890649221111,0.030055327211493,529.64648508357
0.30390624999999,0.03098674275056,0,52.819892069458,0.37486625369615,6.813391159443,1.0263784281702,607.02761022596,-0.0025925223591508,0.030085835492257,529.7615517999
0.30421874999999,0.031019094651837,0,52.819685760419,0.37487728884997,6.8132582660416,1.026408830456,607.1581883169,-0.0025960796398764,0.030116342901756,529.87654408075
0.30453124999999,0.031051447555904,0,52.819479483432,0.37488832417573,6.8131253689623,1.0264392332001,607.28868084903,-0.0025995507705463,0.030146849440019,529.99146193017
0.30484374999999,0.031083801462762,0,52.819273238438,0.37489935967337,6.8129924682266,1.0264696364024,607.41908780001,-0.0026030071881153,0.030177355107084,530.10630538999
0.30515624999999,0.031116156372404,0,52.819067025438,0.37491039534273,6.8128595638574,1.0265000400625,607.54940920723,-0.0026065080467028,0.030207859902978,530.22107454576
0.30546874999999,0.031148512284828,0,52.818860844385,0.37492143118356,6.8127266558767,1.0265304441803,607.67964516125,-0.0026099809796486,0.030238363827738,530.33576940922
0.30578124999999,0.031180869200034,0,52.818654695264,0.3749324671958,6.8125937443072,1.0265608487555,607.80979565688,-0.0026135338707834,0.030268866881398,530.45039006884
0.30609374999999,0.03121322711802,0,52.818448578066,0.37494350337909,6.8124608291715,1.0265912537878,607.93986084732,-0.0026170022431956,0.030299369063984,530.56493651521
0.30640624999999,0.031245586038781,0,52.975722807703,0.37495453973298,6.8123279104912,1.026621659277,608.06984072893,-0.0026204748756754,0.030329870375535,530.67940882462
0.30671874999999,0.031277945962313,0,53.132997069196,0.37496557625773,6.8121949882888,1.0266520652229,608.19973537425,-0.0026239305749275,0.030360370816082,530.79380703862
0.30703124999999,0.031310306888615,0,53.132791047578,0.37497661295297,6.8120620625866,1.0266824716253,608.32954476268,-0.0026274857208135,0.030390870385654,530.90813123876
0.30734374999999,0.031342668817688,0,53.13258505776,0.3749876498184,6.811929133406,1.0267128784838,608.4592690609,-0.0026309493759634,0.030421369084291,531.02238140497
0.30765624999999,0.031375031749521,0,53.132379099739,0.37499868685381,6.8117962007699,1.0267432857982,608.58890832326,-0.0026343509655057,0.030451866912019,531.13655760978
0.30796874999999,0.031407395684116,0,53.132173173487,0.37500972405898,6.8116632647002,1.0267736935684,608.71846242716,-0.0026379502543178,0.030482363868869,531.25065996622
0.30828124999999,0.03143976062147,0,53.131967278965,0.37502076143398,6.8115303252185,1.026804101794,608.84793162279,-0.0026414309165568,0.030512859954884,531.36468842577
0.30859374999999,0.031472126561585,0,53.131761416157,0.3750317989783,6.8113973823466,1.0268345104748,608.97731587854,-0.0026449340266066,0.030543355170089,531.47864307701
0.30890624999999,0.03150449350445,0,53.131555585047,0.37504283669183,6.8112644361062,1.0268649196106,609.10661526293,-0.0026484364619813,0.030573849514516,531.59252395986
0.30921874999999,0.031536861450068,0,53.131349785598,0.37505387457451,6.8111314865195,1.0268953292011,609.23582986083,-0.002651907307633,0.030604342988204,531.70633111973
0.30953124999999,0.031569230398437,0,53.131144017798,0.37506491262595,6.8109985336082,1.026925739246,609.36495969462,-0.0026553751733759,0.03063483559118,531.82006460322
0.30984374999999,0.03160160034955,0,53.13093828162,0.37507595084598,6.8108655773939,1.0269561497452,609.49400480961,-0.0026588619506533,0.030665327323478,531.93372446547
0.31015624999999,0.031633971303408,0,53.13073257703,0.37508698923439,6.8107326178982,1.0269865606984,609.62296524723,-0.0026623870278259,0.030695818185134,532.04731076002
0.31046874999999,0.031666343260005,0,53.130526904023,0.37509802779122,6.8105996551426,1.0270169721054,609.75184112272,-0.0026658475466418,0.030726308176173,532.16082349496
0.31078124999999,0.031698716219342,0,53.130321262558,0.37510906651583,6.8104666891484,1.0270473839658,609.88063238645,-0.0026694083179137,0.030756797296637,532.27426277257
0.31109374999999,0.031731090181415,0,53.208855810103,0.3751201054084,6.8103337199373,1.0270777962795,610.00933921893,-0.0026728707496921,0.030787285546553,532.38762857534
0.31140624999999,0.031763465146218,0,53.208650231669,0.37513114446861,6.8102007475309,1.0271082090463,610.13796159375,-0.0026763746883061,0.030817772925952,532.50092100324
0.31171874999999,0.031795841113756,0,53.287184842186,0.37514218369624,6.8100677719503,1.0271386222658,610.26649958896,-0.0026798640290896,0.030848259434876,532.61414006825
0.31203124999999,0.031828218084021,0,53.365719484171,0.37515322309106,6.8099347932171,1.0271690359378,610.39495327593,-0.002683325277377,0.030878745073347,532.727285831
0.31234374999999,0.031860596057013,0,53.365514000099,0.37516426265304,6.809801811352,1.0271994500621,610.52332261086,-0.0026868874229459,0.030909229841406,532.84035835421
0.31265624999999,0.031892975032726,0,53.365308547441,0.37517530238169,6.8096688263767,1.0272298646385,610.65160778572,-0.0026903619133901,0.030939713739079,532.95335764656
0.31296874999999,0.03192535501116,0,53.365103126162,0.37518634227709,6.8095358383124,1.0272602796667,610.77980879071,-0.0026938373468386,0.030970196766406,533.06628377559
0.31328124999999,0.031957735992312,0,53.364897736246,0.37519738233885,6.8094028471801,1.0272906951464,610.9079256705,-0.0026973272008225,0.031000678923412,533.17913678752
0.31359374999999,0.031990117976179,0,53.36469237767,0.37520842256708,6.8092698530009,1.0273211110774,611.03595847749,-0.0027008291392713,0.031031160210135,533.29191673131
0.31390624999999,0.032022500962761,0,53.364487050406,0.3752194629612,6.8091368557954,1.0273515274595,611.16390728558,-0.0027043116048647,0.031061640626607,533.404623636
0.31421874999999,0.032054884952051,0,53.36428175444,0.37523050352103,6.8090038555848,1.0273819442925,611.29177211384,-0.0027078302156006,0.031092120172857,533.51725757328
0.31453124999999,0.032087269944047,0,53.442816647217,0.37524154424671,6.8876110098705,1.027412361576,611.41955307812,-0.0027112980323236,0.031122598848923,533.6298185615
0.31484374999999,0.032119655938752,0,53.442611413762,0.37525258513775,6.8874780037123,1.0274427793099,611.54725016573,-0.0027148013614702,0.031153076654836,533.74230666922
0.31515624999999,0.032152042936159,0,53.44240621153,0.37526362619441,6.8873449946115,1.0274731974938,611.67486343812,-0.0027183304510045,0.031183553590628,533.8547219385
0.31546874999999,0.032184430936268,0,53.442201040505,0.37527466741568,6.9659521400696,1.0275036161277,611.8023930213,-0.0027217939249714,0.031214029656331,533.9670643988
0.31578124999999,0.032216819939071,0,53.441995900652,0.37528570880216,6.9658191251461,1.0275340352111,611.92983887297,-0.0027253061774443,0.031244504851978,534.07933411225
0.31609374999999,0.03224920994457,0,53.441790791958,0.37529675035318,6.9656861073426,1.0275644547439,612.05720108916,-0.0027288357083946,0.031274979177605,534.19153113279
0.31640624999999,0.032281600952762,0,53.441585714398,0.37530779206871,6.9655530866795,1.0275948747259,612.18447975769,-0.0027323054527644,0.031305452633238,534.30365547326
0.31671874999999,0.032313992963645,0,53.520120825412,0.37531883394865,6.965420063177,1.0276252951567,612.31167485368,-0.0027358351563532,0.031335925218921,534.41570721355
0.31703124999999,0.032346385977212,0,53.519915810041,0.37532987599262,6.9652870368555,1.0276557160362,612.43878649131,-0.0027393349324034,0.031366396934676,534.52768637602
0.31734374999999,0.03237877999347,0,53.51971082574,0.37534091820058,6.965154007736,1.0276861373641,612.56581473713,-0.0027427956051427,0.03139686778054,534.63959300613
0.31765624999999,0.032411175012405,0,53.519505872479,0.37535196057226,6.9650209758386,1.0277165591401,612.69275959219,-0.002746287202849,0.031427337756545,534.75142716774
0.31796874999999,0.032443571034026,0,53.598041107721,0.3753630031074,6.9648879411841,1.027746981364,612.81962114084,-0.0027497717344621,0.031457806862725,534.86318890099
0.31828124999999,0.032475968058326,0,53.597836216465,0.37537404580595,6.9647549037925,1.0277774040357,612.94639937903,-0.0027533181124698,0.031488275099115,534.97487825804
0.31859374999999,0.032508366085296,0,53.597631356188,0.37538508866764,6.9646218636842,1.0278078271547,613.07309441466,-0.002756856568276,0.031518742465742,535.08649527745
0.31890624999999,0.03254076511494,0,53.597426526873,0.37539613169248,6.9644888208789,1.0278382507209,613.19970632431,-0.0027603377147465,0.031549208962641,535.19803998226
0.31921874999999,0.032573165147256,0,53.59722172848,0.37540717487979,6.9643557753973,1.0278686747341,613.32623510879,-0.0027638590182717,0.031579674589848,535.30951244826
0.31953124999999,0.03260556618224,0,53.675757118482,0.37541821822988,6.9642227272597,1.027899099194,613.45268090562,-0.0027672882215499,0.031610139347391,535.4209126917
0.31984374999999,0.032637968219887,0,53.675552381883,0.37542926174239,6.964089676486,1.0279295241003,613.57904361955,-0.0027708388543914,0.031640603235306,535.53224080859
0.32015624999999,0.032670371260199,0,53.675347676148,0.37544030541701,6.9639566230962,1.0279599494529,613.70532347711,-0.0027742576154423,0.031671066253625,535.64349677466
0.32046874999999,0.032702775303174,0,53.753883158728,0.37545134925383,6.9638235671101,1.0279903752514,613.831520334,-0.0027778375630624,0.031701528402383,535.75468072002
0.32078124999999,0.032735180348804,0,53.753678514656,0.37546239325232,6.963690508548,1.0280208014957,613.95763440055,-0.0027813486802637,0.031731989681608,535.86579262775
0.32109374999999,0.032767586397092,0,53.832214058849,0.37547343741246,6.9635574474292,1.0280512281854,614.08366566726,-0.0027848635580414,0.031762450091337,535.97683255207
0.32140624999999,0.032799993448033,0,53.832009476345,0.37548448173429,6.9634243837742,1.0280816553204,614.20961422925,-0.0027883443832147,0.031792909631601,536.08780054032
0.32171874999999,0.032832401501624,0,53.989285239549,0.37549552621714,6.9632913176025,1.0281120829004,614.33548009739,-0.0027918405884894,0.031823368302433,536.1986966461
0.32203124999999,0.032864810557863,0,53.989080718525,0.37550657086129,6.9631582489337,1.0281425109251,614.46126331762,-0.0027953617986287,0.031853826103866,536.3095209205
0.32234374999999,0.032897220616751,0,53.988876228218,0.37551761566631,6.9630251777881,1.0281729393944,614.5869639841,-0.0027988567270049,0.031884283035933,536.42027339365
0.32265624999999,0.032929631678281,0,53.988671768591,0.37552866063196,6.962892104185,1.0282033683079,614.71258211216,-0.0028023716218061,0.031914739098666,536.53095412378
0.32296874999999,0.032962043742452,0,53.988467339636,0.3755397057583,6.962759028144,1.0282337976655,614.83811777419,-0.0028058801765712,0.031945194292098,536.64156314858
0.32328124999999,0.032994456809264,0,53.988262941316,0.37555075104479,6.9626259496848,1.0282642274669,614.96357102734,-0.0028093690514109,0.031975648616263,536.75210050658
0.32359374999999,0.03302687087871,0,53.988058573623,0.37556179649156,6.9624928688268,1.0282946577118,615.0889419056,-0.0028128713825088,0.032006102071193,536.86256625444
0.32390624999999,0.033059285950794,0,53.987854236531,0.37557284209832,7.0410999430698,1.0283250884,615.21423050694,-0.0028163228927208,0.032036554656921,536.9729604243
0.32421874999999,0.033091702025507,0,53.987649930015,0.37558388786494,7.0409668574727,1.0283555195313,615.33943673351,-0.002819942440136,0.032067006373481,537.08328311441
0.32453124999999,0.033124119102852,0,54.066185811542,0.37559493379111,7.0408337695355,1.0283859511054,615.46456084801,-0.0028234211287796,0.032097457220903,537.19353428892
0.32484374999999,0.033156537182821,0,54.06598156612,0.37560597987676,7.0407006792769,1.0284163831221,615.58960278547,-0.0028269195484067,0.032127907199222,537.30371403058
0.32515624999999,0.033188956265417,0,54.065777351212,0.37561702612153,7.0405675867165,1.0284468155811,615.7145626285,-0.0028304056756186,0.032158356308471,537.41382238304
0.32546874999999,0.033221376350637,0,54.065573166802,0.37562807252552,7.0404344918735,1.0284772484823,615.83944039442,-0.0028339332804771,0.032188804548682,537.5238594069
0.32578124999999,0.033253797438473,0,54.222849327817,0.37563911908832,7.0403013947673,1.0285076818252,615.96423620787,-0.0028373935997069,0.032219251919887,537.63382511556
0.32609374999999,0.033286219528933,0,54.222645204331,0.37565016580977,7.0401682954174,1.0285381156098,616.08894995913,-0.0028410302427789,0.032249698422122,537.74371962157
0.32640624999999,0.033318642622003,0,54.301181268747,0.3756612126899,7.0400351938421,1.0285685498358,616.21358196287,-0.0028444286111136,0.032280144055416,537.85354284642
0.32671874999999,0.033351066717688,0,54.300977206094,0.37567225972836,7.039902090061,1.0285989845029,616.33813208357,-0.0028478969891397,0.032310588819804,537.96329493426
0.32703124999999,0.033383491815984,0,54.379513331313,0.37568330692484,7.1185091415736,1.0286294196108,616.46260034979,-0.0028514707832834,0.032341032715318,538.07297593502
0.32734374999999,0.033415917916889,0,54.379309329405,0.37569435427945,7.1183760334376,1.0286598551595,616.58698687214,-0.0028550322222213,0.032371475741994,538.18258584987
0.32765624999999,0.0334483450204,0,54.379105357852,0.37570540179174,7.1182429231526,1.0286902911485,616.71129179949,-0.002858465443624,0.032401917899861,538.29212470859
0.32796874999999,0.033480773126514,0,54.378901416624,0.37571644946177,7.1181098107381,1.0287207275776,616.83551504086,-0.0028619867386499,0.032432359188952,538.40159261473
0.32828124999999,0.033513202235231,0,54.378697505696,0.3757274972892,7.1179766962124,1.0287511644467,616.95965670959,-0.0028654862408529,0.032462799609302,538.51098957186
0.32859374999999,0.033545632346545,0,54.378493625046,0.37573854527383,7.1178435795942,1.0287816017555,617.08371683412,-0.0028689986419405,0.032493239160943,538.62031563373
0.32890624999999,0.03357806346046,0,54.378289774657,0.37574959341553,7.1964506183828,1.0288120395037,617.20769547755,-0.0028725193003897,0.032523677843908,538.7295708507
0.32921874999999,0.033610495576963,0,54.378085954514,0.37576064171413,7.1963174976362,1.0288424776911,617.33159269078,-0.0028760471553148,0.032554115658227,538.8387552703
0.32953124999999,0.033642928696063,0,54.377882164592,0.37577169016964,7.1961843748537,1.0288729163174,617.45540857058,-0.0028795149839512,0.032584552603938,538.94786891339
0.32984374999999,0.033675362817754,0,54.377678404867,0.37578273878146,7.1960512500546,1.0289033553825,617.5791431169,-0.0028830174271661,0.032614988681072,539.05691186284
0.33015624999999,0.033707797942031,0,54.377474675313,0.37579378754981,7.195918123256,1.028933794886,617.70279634171,-0.0028865655126744,0.03264542388966,539.16588414066
0.33046874999999,0.033740234068897,0,54.377270975917,0.37580483647439,7.2745251519577,1.0289642348277,617.82636839636,-0.0028900521823831,0.032675858229738,539.27478577967
0.33078124999999,0.033772671198342,0,54.377067306657,0.37581588555493,7.274392021217,1.0289946752075,617.94985926943,-0.0028935495714541,0.032706291701336,539.38361683612
0.33109374999999,0.033805109330369,0,54.376863667521,0.37582693479121,7.3529990460136,1.0290251160249,618.07326903027,-0.0028970582775823,0.032736724304487,539.49237737257
0.33140624999999,0.033837548464975,0,54.376660058476,0.37583798418314,7.3528659114051,1.0290555572799,618.19659771758,-0.0029005747973685,0.032767156039226,539.60106741278
0.33171874999999,0.033869988602161,0,54.376456479508,0.37584903373076,7.3527327748904,1.0290859989722,618.31984537774,-0.0029041201032904,0.032797586905584,539.70968701912
0.33203124999999,0.033902429741917,0,54.376252930582,0.37586008343362,7.3525996364874,1.0291164411014,618.443012108,-0.0029076038636521,0.032828016903597,539.81823619794
0.33234374999999,0.033934871884246,0,54.376049411702,0.3758711332917,7.3524664962146,1.0291468836674,618.56609786195,-0.0029111991325478,0.032858446033293,539.92671505716
0.33265624999999,0.033967315029145,0,54.375845922837,0.37588218330452,7.3523333540905,1.02917732667,618.68910284816,-0.0029146587072378,0.032888874294709,540.03512356538
0.33296874999999,0.033999759176613,0,54.375642463956,0.37589323347215,7.3522002101332,1.0292077701089,618.81202698282,-0.0029181837179974,0.032919301687878,540.14346181812
0.33328124999999,0.034032204326646,0,54.37543903506,0.37590428379458,7.352067064361,1.0292382139838,618.93487037036,-0.002921702487854,0.032949728212827,540.25172985295
0.33359374999999,0.034064650479243,0,54.375235636105,0.37591533427133,7.3519339167918,1.0292686582945,619.05763303342,-0.0029252463002075,0.032980153869598,540.35992770786
0.33390624999999,0.034097097634396,0,54.37503226709,0.37592638490233,7.3518007674439,1.0292991030408,619.1803151145,-0.0029286901920795,0.033010578658214,540.4680554043
0.33421874999999,0.034129545792113,0,54.374828927975,0.37593743568754,7.3516676163351,1.0293295482225,619.30291653946,-0.0029322187270207,0.033041002578719,540.57611303213
0.33453124999999,0.034161994952384,0,54.374625618768,0.37594848662663,7.3515344634837,1.0293599938392,619.42543742522,-0.0029357289396911,0.033071425631136,540.68410060545
0.33484374999999,0.03419444511521,0,54.374422339423,0.37595953771941,7.4301414663877,1.0293904398908,619.54787780176,-0.0029392618644522,0.033101847815504,540.79201819001
0.33515624999999,0.034226896280589,0,54.374219089926,0.37597058896575,7.4300083101047,1.0294208863769,619.67023772689,-0.0029428046184596,0.033132269131855,540.8998658192
0.33546874999999,0.034259348448518,0,54.374015870269,0.37598164036564,7.4298751521329,1.0294513332975,619.79251729257,-0.0029462911002748,0.03316268958022,541.00764351526
0.33578124999999,0.03429180161899,0,54.373812680422,0.37599269191859,7.4297419924902,1.0294817806522,619.91471649079,-0.0029498159449107,0.03319310916063,541.11535135275
0.33609374999999,0.034324255792012,0,54.452349677843,0.37600374362473,7.4296088311944,1.0295122284407,620.03683543173,-0.0029532865619585,0.033223527873123,541.22298935284
0.33640624999999,0.034356710967577,0,54.452146547565,0.37601479548375,7.429475668263,1.0295426766629,620.15887407164,-0.0029568436103318,0.033253945717728,541.33055759143
0.33671874999999,0.034389167145685,0,54.451943447038,0.37602584749535,7.4293425037142,1.0295731253185,620.28083253757,-0.0029603872831165,0.033284362694482,541.43805609612
0.33703124999999,0.034421624326329,0,54.451740376232,0.37603689965948,7.4292093375653,1.0296035744073,620.40271088386,-0.0029638894330789,0.033314778803417,541.54548489058
0.33734374999999,0.03445408250951,0,54.451537335145,0.37604795197622,7.4290761698342,1.029634023929,620.52450912962,-0.0029674168773106,0.033345194044561,541.65284404595
0.33765624999999,0.034486541695228,0,54.451334323756,0.37605900444493,7.4289430005383,1.0296644738833,620.6462273474,-0.0029709299337903,0.033375608417952,541.76013359481
0.33796874999999,0.034519001883477,0,54.451131342033,0.3760700570658,7.4288098296953,1.0296949242702,620.76786557338,-0.0029744516747193,0.033406021923621,541.86735358058
0.33828124999999,0.034551463074255,0,54.450928389969,0.37608110983854,7.4286766573229,1.0297253750892,620.8894238826,-0.0029779509804932,0.0334364345616,541.97450404994
0.33859374999999,0.034583925267561,0,54.450725467531,0.3760921627629,7.4285434834384,1.0297558263401,621.01090228045,-0.0029814878707252,0.033466846331925,542.08158505338
0.33890624999999,0.034616388463394,0,54.450522574717,0.37610321583888,7.4284103080595,1.0297862780228,621.13230087948,-0.0029849789666392,0.033497257234625,542.18859662131
0.33921874999999,0.034648852661753,0,54.450319711487,0.37611426906601,7.4282771312033,1.029816730137,621.25361964833,-0.0029885424118194,0.03352766726974,542.29553882237
0.33953124999999,0.034681317862631,0,54.450116877842,0.37612532244462,7.4281439528876,1.0298471826824,621.37485874262,-0.0029920229190552,0.033558076437294,542.40241166252
0.33984374999999,0.034713784066032,0,54.449914073748,0.37613637597419,7.4280107731297,1.0298776356588,621.49601812976,-0.0029955409457196,0.033588484737325,542.50921521305
0.34015624999999,0.034746251271946,0,54.449711299189,0.37614742965451,7.4278775919466,1.0299080890659,621.61709787567,-0.0029990746467539,0.033618892169865,542.6159495161
0.34046874999999,0.034778719480379,0,54.528248711631,0.37615848348555,7.4277444093556,1.0299385429036,621.73809808488,-0.0030025472011862,0.033649298734948,542.72261459428
0.34078124999999,0.034811188691324,0,54.606786153575,0.37616953746712,7.4276112253743,1.0299689971716,621.8590187294,-0.0030060813959738,0.033679704432603,542.82921052513
0.34109374999999,0.034843658904782,0,54.606583467505,0.37618059159907,7.4274780400194,1.0299994518695,621.97985988688,-0.003009627109067,0.033710109262871,542.93573733912
0.34140624999999,0.034876130120746,0,54.606380810895,0.37619164588117,7.4273448533083,1.0300299069973,622.10062161193,-0.003013180252654,0.033740513225778,543.04219507398
0.34171874999999,0.034908602339219,0,54.606178183733,0.37620270031339,7.427211665258,1.0300603625547,622.22130399788,-0.0030166729103444,0.033770916321357,543.14858375911
0.34203124999999,0.034941075560195,0,54.605975585982,0.37621375489541,7.427078475886,1.0300908185413,622.34190706212,-0.0030201745615015,0.033801318549644,543.25490346412
0.34234374999999,0.034973549783673,0,54.60577301764,0.37622480962711,7.4269452852087,1.0301212749571,622.46243083595,-0.0030236882592198,0.03383171991067,543.36115421848
0.34265624999999,0.035006025009655,0,54.605570478687,0.37623586450817,7.4268120932435,1.0301517318016,622.58287542172,-0.0030271561943473,0.03386212040447,543.46733606211
0.34296874999999,0.035038501238133,0,54.605367969086,0.37624691953881,7.4266789000076,1.0301821890748,622.70324078998,-0.0030306938324168,0.033892520031075,543.5734490702
0.34328124999999,0.035070978469109,0,54.605165488831,0.37625797471849,7.4265457055172,1.0302126467763,622.82352702092,-0.0030342426707,0.033922918790519,543.6794932584
0.34359374999999,0.03510345670258,0,54.604963037892,0.3762690300474,7.4264125097893,1.030243104906,622.94373417966,-0.0030377946351976,0.033953316682839,543.78546867833
0.34390624999999,0.035135935938543,0,54.604760616276,0.37628008552497,7.4262793128414,1.0302735634635,623.06386236702,-0.0030412780390489,0.033983713708058,543.89137535561
0.34421874999999,0.035168416176996,0,54.60455822394,0.37629114115137,7.4261461146899,1.0303040224486,623.18391154025,-0.0030448162344651,0.034014109866218,543.99721335905
0.34453124999999,0.035200897417936,0,54.604355860871,0.37630219692627,7.4260129153518,1.0303344818612,623.30388179857,-0.0030483538931225,0.034044505157347,544.10298272585
0.34484374999999,0.035233379661364,0,54.604153527051,0.37631325284954,7.4258797148435,1.0303649417009,623.42377319977,-0.0030518597852161,0.034074899581481,544.20868348007
0.34515624999999,0.035265862907277,0,54.603951222464,0.376324308921,7.4257465131818,1.0303954019675,623.54358575791,-0.0030554084038578,0.034105293138652,544.31431570042
0.34546874999999,0.035298347155669,0,54.603748947093,0.37633536514062,7.4256133103838,1.0304258626609,623.66331954154,-0.0030589682854802,0.034135685828892,544.41987941389
0.34578124999999,0.035330832406544,0,54.603546700908,0.376346421508,7.4254801064657,1.0304563237806,623.78297463322,-0.0030624758206193,0.034166077652236,544.52537463932
0.34609374999999,0.035363318659892,0,54.603344483902,0.37635747802319,7.425346901444,1.0304867853266,623.90255105104,-0.003065989706504,0.034196468608712,544.63080144222
0.34640624999999,0.035395805915722,0,54.603142296043,0.37636853468586,7.4252136953354,1.0305172472985,624.02204885646,-0.0030694918035574,0.034226858698361,544.73615986249
0.34671874999999,0.035428294174022,0,54.602940137332,0.37637959149595,7.4250804881565,1.0305477096961,624.14146808693,-0.0030730117673668,0.034257247921211,544.84144995688
0.34703124999999,0.035460783434796,0,54.60273800774,0.37639064845334,7.4249472799239,1.0305781725193,624.26080879488,-0.0030765319383358,0.034287636277294,544.94667175596
0.34734374999999,0.035493273698038,0,54.602535907245,0.37640170555775,7.4248140706537,1.0306086357676,624.38007102761,-0.0030800601229549,0.034318023766645,545.05182530354
0.34765624999999,0.035525764963748,0,54.602333835833,0.37641276280894,7.4246808603628,1.030639099441,624.49925483155,-0.0030836146885406,0.034348410389297,545.15691066439
0.34796874999999,0.035558257231925,0,54.602131793477,0.37642382020718,7.424547649067,1.0306695635391,624.61836032233,-0.0030870709004993,0.034378796145285,545.2619278204
0.34828124999999,0.035590750502566,0,54.601929780171,0.37643487775191,7.424414436783,1.0307000280618,624.73738741805,-0.003090644757398,0.034409181034638,545.36687688988
0.34859374999999,0.035623244775666,0,54.680467953371,0.37644593544287,7.4242812235272,1.0307304930088,624.8563363201,-0.0030941158019924,0.03443956505739,545.47175786325
0.34890624999999,0.035655740051228,0,54.680265998097,0.37645699328029,7.4241480093155,1.0307609583798,624.97520693073,-0.0030976891800003,0.034469948213576,545.57657082628
0.34921874999999,0.03568823632925,0,54.758804229289,0.37646805126382,7.4240147941642,1.0307914241746,625.09399940236,-0.0031012092062012,0.03450033050323,545.68131577993
0.34953124999999,0.035720733609725,0,54.758602331984,0.37647910939334,7.4238815780899,1.030821890393,625.21271377807,-0.0031047091316801,0.034530711926379,545.78599279145
0.34984374999999,0.035753231892653,0,54.758400463623,0.37649016766861,7.4237483611083,1.0308523570347,625.33135006513,-0.0031082231194857,0.034561092483062,545.89060188922
0.35015624999999,0.035785731178033,0,54.758198624199,0.37650122608955,7.4236151432357,1.0308828240995,625.44990833655,-0.0031117419981768,0.034591472173309,545.9951431326
0.35046874999999,0.035818231465865,0,54.757996813685,0.37651228465585,7.4234819244882,1.0309132915871,625.5683886041,-0.0031153116498658,0.034621850997157,546.09961657517
0.35078124999999,0.035850732756144,0,54.75779503207,0.37652334336767,7.4233487048819,1.0309437594974,625.6867909727,-0.0031188445314466,0.034652228954634,546.20402222781
0.35109374999999,0.03588323504887,0,54.757593279343,0.37653440222455,7.5019556419129,1.0309742278301,625.80511546889,-0.0031223818077005,0.034682606045774,546.30836014877
0.35140624999999,0.035915738344039,0,54.757391555474,0.37654546122638,7.501822420637,1.0310046965849,625.92336218016,-0.0031258701648268,0.034712982270612,546.41263037183
0.35171874999999,0.035948242641648,0,54.757189860451,0.37655652037308,7.50168919855,1.0310351657616,626.04153106155,-0.0031294430923325,0.034743357629181,546.51683296658
0.35203124999999,0.035980747941699,0,54.756988194247,0.37656757966456,7.5015559756679,1.0310656353599,626.15962226341,-0.0031329505447592,0.034773732121514,546.62096794059
0.35234374999999,0.03601325424419,0,54.756786556852,0.37657863910064,7.5014227520067,1.0310961053797,626.27763576874,-0.0031364939854533,0.034804105747642,546.72503536179
0.35265624999999,0.036045761549113,0,54.756584948251,0.37658969868093,7.5012895275821,1.0311265758207,626.39557169325,-0.0031399794127317,0.0348344785076,546.82903525513
0.35296874999999,0.036078269856473,0,54.756383368421,0.37660075840545,7.5011563024101,1.0311570466826,626.51342998692,-0.0031435563639368,0.03486485040142,546.93296769713
0.35328124999999,0.036110779166262,0,54.756181817348,0.37661181827413,7.5010230765065,1.0311875179653,626.6312107843,-0.003147089873787,0.034895221429133,547.03683269412
0.35359374999999,0.036143289478483,0,54.755980295004,0.37662287828675,7.5008898498871,1.0312179896684,626.74891414517,-0.0031505660617905,0.034925591590777,547.14063028442
0.35390624999999,0.036175800793133,0,54.834518958869,0.37663393844293,7.5007566225673,1.0312484617917,626.86654004814,-0.0031540988373705,0.034955960886381,547.24436055048
0.35421874999999,0.036208313110211,0,54.834317493946,0.37664499874295,7.5006233945629,1.031278934335,626.98408854942,-0.0031576649703678,0.034986329315982,547.34802351556
0.35453124999999,0.036240826429711,0,54.834116057703,0.37665605918626,7.5004901658893,1.0313094072981,627.10155974695,-0.0031611948149335,0.035016696879609,547.45161920604
0.35484374999999,0.036273340751629,0,54.833914650143,0.37666711977281,7.5003569365629,1.0313398806807,627.21895368608,-0.0031647183375188,0.035047063577293,547.5551476908
0.35515624999999,0.036305856075973,0,54.833713271208,0.37667818050273,7.5789638640788,1.0313703544826,627.3362703767,-0.0031682537526244,0.035077429409077,547.65860898969
0.35546874999999,0.036338372402738,0,54.833511920913,0.37668924137548,7.5788306334923,1.0314008287036,627.45350991209,-0.0031717666263539,0.035107794374987,547.76200315553
0.35578124999999,0.036370889731919,0,54.833310599226,0.37670030239106,7.5786974022989,1.0314313033433,627.57067232328,-0.0031752691022168,0.035138158475057,547.8653302262
0.35609374999999,0.036403408063508,0,54.833109306136,0.37671136354922,7.578564170514,1.0314617784016,627.68775759636,-0.0031788598769015,0.035168521709316,547.96859027165
0.35640624999999,0.036435927397518,0,54.832908041629,0.37672242485007,7.5784309381535,1.0314922538783,627.80476588633,-0.0031823841013151,0.035198884077801,548.07178329658
0.35671874999999,0.036468447733937,0,54.832706805675,0.3767334862933,7.5782977052325,1.031522729773,627.92169721793,-0.0031858727823639,0.035229245580549,548.17490934761
0.35703124999999,0.036500969072762,0,54.832505598267,0.37674454787862,7.5781644717664,1.0315532060856,628.03855157298,-0.0031894304888956,0.035259606217585,548.27796849808
0.35734374999999,0.036533491413997,0,54.832304419385,0.37675560960602,7.578031237771,1.0315836828158,628.1553290825,-0.0031929429218442,0.035289965988949,548.38096076429
0.35765624999999,0.036566014757636,0,54.832103269007,0.37676667147542,7.5778980032611,1.0316141599634,628.27202975299,-0.0031964538617496,0.03532032489467,548.48388618927
0.35796874999999,0.036598539103681,0,54.83190214711,0.37677773348634,7.5777647682518,1.0316446375282,628.38865361806,-0.0031999953788782,0.035350682934786,548.58674482702
0.35828124999999,0.036631064452124,0,54.8317010537,0.37678879563902,7.5776315327587,1.0316751155098,628.50520076372,-0.0032035203201696,0.03538104010932,548.6895367159
0.35859374999999,0.036663590802968,0,54.831499988738,0.37679985793324,7.5774982967972,1.0317055939081,628.62167119913,-0.0032070867099772,0.035411396418318,548.79226190873
0.35890624999999,0.036696118156214,0,54.831298952211,0.37681092036867,7.5773650603818,1.0317360727229,628.73806496625,-0.0032106833104702,0.035441751861804,548.89492043885
0.35921874999999,0.036728646511854,0,54.831097944112,0.37682198294527,7.5772318235284,1.0317665519538,628.85438225571,-0.0032141262038738,0.035472106439813,548.99751230655
0.35953124999999,0.036761175869887,0,54.830896964401,0.37683304566287,7.5770985862511,1.0317970316007,628.9706229217,-0.0032176829768559,0.035502460152381,549.1000376206
0.35984374999999,0.036793706230309,0,54.830696013099,0.37684410852126,7.5769653485661,1.0318275116634,629.08678714512,-0.0032211878877547,0.035532812999534,549.20249638995
0.36015624999999,0.036826237593126,0,54.830495090145,0.37685517152042,7.5768321104877,1.0318579921415,629.20287485962,-0.0032247803758897,0.035563164981315,549.30488868232
0.36046874999999,0.03685876995833,0,54.830294195554,0.37686623466022,7.5766988720311,1.0318884730348,629.31888626594,-0.0032282466083714,0.035593516097749,549.40721448443
0.36078124999999,0.03689130332592,0,54.830093329297,0.37687729794014,7.5765656332114,1.0319189543432,629.43482128921,-0.0032317743078194,0.035623866348873,549.50947389337
0.36109374999999,0.036923837695897,0,54.829892491355,0.37688836136057,7.5764323940436,1.0319494360663,629.55067999799,-0.0032353382235702,0.035654215734719,549.61166694658
0.36140624999999,0.036956373068255,0,54.829691681714,0.37689942492086,7.5762991545426,1.031979918204,629.66646250094,-0.0032388377844533,0.035684564255322,549.71379365411
0.36171874999999,0.036988909442995,0,54.829490900362,0.3769104886213,7.5761659147229,1.032010400756,629.78216871646,-0.0032424655102903,0.03571491191071,549.81585410513
0.36203124999999,0.037021446820115,0,54.829290147279,0.37692155246163,7.5760326745998,1.0320408837221,629.89779890898,-0.0032459083983731,0.035745258700921,549.91784826674
0.36234374999999,0.037053985199613,0,54.829089422433,0.37693261644122,7.5758994341881,1.0320713671019,630.0133529087,-0.0032494966336844,0.035775604625989,550.01977627035
0.36265624999999,0.037086524581486,0,54.907628883302,0.37694368056074,7.5757661935021,1.0321018508954,630.12883090366,-0.0032529965728256,0.035805949685943,550.12163807824
0.36296874999999,0.037119064965731,0,54.907428214913,0.37695474481936,7.5756329525569,1.0321323351022,630.24423285875,-0.0032565674597493,0.035836293880817,550.22343380195
0.36328124999999,0.037151606352353,0,54.907227574723,0.3769658092171,7.5754997113672,1.0321628197222,630.35955889469,-0.0032600766579112,0.035866637210647,550.32516342526
0.36359374999999,0.037184148741341,0,54.985767120192,0.37697687375429,7.5753664699479,1.032193304755,630.47480901984,-0.0032636009113241,0.035896979675461,550.42682702774
0.36390624999999,0.037216692132698,0,55.064306693827,0.37698793843008,7.5752332283134,1.0322237902005,630.58998326685,-0.0032671496287274,0.035927321275296,550.52842463904
0.36421874999999,0.037249236526421,0,55.064106138137,0.37699900324461,7.5750999864784,1.0322542760584,630.70508171378,-0.0032706897398691,0.035957662010184,550.62995630391
0.36453124999999,0.037281781922511,0,55.063905610571,0.37701006819777,7.5749667444578,1.0322847623284,630.82010439539,-0.0032742426982591,0.035988001880161,550.73142206813
0.36484374999999,0.037314328320965,0,55.063705111122,0.37702113328958,7.5748335022656,1.0323152490104,630.93505138067,-0.0032777569046315,0.036018340885256,550.83282194565
0.36515624999999,0.037346875721777,0,55.063504639775,0.37703219851959,7.5747002599167,1.0323457361041,631.04992270688,-0.0032812716784477,0.036048679025503,550.9341560073
0.36546874999999,0.037379424124952,0,55.063304196496,0.37704326388776,7.574567017425,1.0323762236093,631.16471839295,-0.0032848122821518,0.036079016300939,551.03542428617
0.36578124999999,0.037411973530485,0,55.063103781301,0.37705432939396,7.5744337748057,1.0324067115257,631.27943851442,-0.0032883646539995,0.036109352711591,551.13662684099
0.36609374999999,0.037444523938373,0,55.062903394147,0.37706539503812,7.574300532073,1.0324371998531,631.39408312024,-0.003291901810872,0.036139688257495,551.23776368569
0.36640624999999,0.037477075348613,0,55.062703035024,0.37707646082002,7.5741672892415,1.0324676885912,631.50865229662,-0.0032953877514344,0.036170022938685,551.33883486721
0.36671874999999,0.037509627761206,0,55.062502703924,0.37708752673941,7.5740340463252,1.0324981777399,631.62314598557,-0.0032989613165963,0.036200356755191,551.43984045079
0.36703124999999,0.037542181176149,0,55.062302400815,0.37709859279635,7.5739008033386,1.0325286672989,631.7375643238,-0.0033024992279125,0.03623068970705,551.54078045301
0.36734374999999,0.037574735593629,0,55.062102125539,0.37710965899067,7.5737675602996,1.032559157268,631.8519069668,-0.0033066879534558,0.036261021794451,551.64165515714
0.36765624999999,0.037607291013098,0,55.061901878521,0.37712072532206,7.5736343172152,1.0325896476468,631.96617505852,-0.0033095869861663,0.036291353016967,551.74246390708
0.36796874999999,0.037639847435081,0,55.061701659315,0.37713179179033,7.5735010741035,1.0326201384352,632.08036756213,-0.0033131263354817,0.036321683375078,551.84320744022
0.36828124999999,0.037672404859411,0,55.061501468046,0.37714285839564,7.573367830979,1.032650629633,632.19448488844,-0.0033166698283667,0.036352012868674,551.94388557636
0.36859374999999,0.037704963286083,0,55.061301304693,0.37715392513751,7.5732345878554,1.0326811212399,632.30852709089,-0.0033201874134422,0.036382341497786,552.04449833323
0.36890624999999,0.037737522715096,0,55.061101169235,0.37716499201614,7.5731013447469,1.0327116132556,632.4224941884,-0.0033237303089692,0.03641266926245,552.14504577569
0.36921874999999,0.037770083146219,0,55.060901052178,0.37717605903236,7.5729681016757,1.0327421056809,632.53638308845,-0.0033315243675812,0.036442996164371,552.24552878002
0.36953124999999,0.037802644580094,0,55.060700981297,0.37718712618365,7.5728348586397,1.0327725985137,632.65020320718,-0.0033307983113497,0.03647332219866,552.34594474419
0.36984374999999,0.037835207016114,0,55.060500929465,0.37719819347098,7.5727016156618,1.0328030917546,632.76394533472,-0.0033343628561523,0.036503647370169,552.44629648369
0.37015624999999,0.03786777045447,0,55.060300905459,0.37720926089432,7.5725683727554,1.0328335854035,632.87761258707,-0.0033378891860303,0.036533971677365,552.546583048
0.37046874999999,0.037900334895154,0,55.060100909276,0.37722032845362,7.5724351299348,1.03286407946,632.99120498963,-0.0033414325705056,0.036564295120274,552.64680450988
0.37078124999999,0.03793290033817,0,55.059900940891,0.37723139614859,7.6510420446942,1.0328945739241,633.10472256395,-0.0033450102370371,0.036594617698933,552.74696090106
0.37109374999999,0.037965466783513,0,55.05970100031,0.37724246397902,7.6509088020869,1.0329250687954,633.21816544851,-0.0033484975405966,0.036624939413371,552.84705223475
0.37140624999999,0.037998034231155,0,55.059501087441,0.3772535319451,7.650775559608,1.0329555640736,633.33153357297,-0.0033521051658222,0.036655260263632,552.94707863318
0.37171874999999,0.038030602681149,0,55.059301202372,0.37726460004641,7.6506423172706,1.0329860597587,633.44482708291,-0.0033556167836614,0.036685580249737,553.04704003267
0.37203124999999,0.038063172133465,0,55.059101345043,0.3772756682828,7.7292492325685,1.0330165558503,633.55804596197,-0.0033591573907865,0.036715899371723,553.14693652823
0.37234374999999,0.038095742588102,0,55.058901515437,0.37728673665429,7.7291159905552,1.0330470523481,633.67119027308,-0.0033627212024595,0.036746217629625,553.2467681694
0.37265624999999,0.038128314045059,0,55.058701713536,0.37729780516061,7.7289827487248,1.0330775492521,633.78426006519,-0.0033662847512358,0.036776535023475,553.34653497453
0.37296874999999,0.038160886504332,0,55.13724209682,0.37730887380169,7.7288495070914,1.0331080465619,633.89725545404,-0.003369764899112,0.036806851553305,553.44623698152
0.37328124999999,0.038193459965924,0,55.137042350285,0.37731994257734,7.7287162656683,1.0331385442772,634.01017634706,-0.0033733597068857,0.036837167219151,553.54587426988
0.37359374999999,0.038226034429828,0,55.136842631414,0.37733101148755,7.7285830244693,1.033169042398,634.12302289753,-0.0033769067451965,0.036867482021043,553.64544684054
0.37390624999999,0.038258609896046,0,55.136642940188,0.37734208053192,7.7284497835082,1.0331995409238,634.23579515667,-0.0033804137831842,0.036897795959016,553.74495474131
0.37421874999999,0.038291186364383,0,55.136443267363,0.37735314971168,7.7283165428055,1.0332300398554,634.34849002753,-0.0033880751902652,0.036928109034761,553.84439882393
0.37453124999999,0.038323763835379,0,55.136243639963,0.37736421902422,7.7281833023608,1.0332605391908,634.46111669243,-0.0033875495967793,0.036958421243437,553.94377664945
0.37484374999999,0.038356342308524,0,55.13604403159,0.37737528847083,7.7280500621955,1.0332910389305,634.57366626791,-0.0033910704512181,0.036988732589849,554.04309082179
0.37515624999999,0.038388921783977,0,55.135844450783,0.37738635805098,7.7279168223223,1.0333215390745,634.68614168899,-0.0033946225025039,0.037019043072479,554.1423405048
0.37546874999999,0.038421502261732,0,55.135644897555,0.37739742776483,7.7277835827553,1.0333520396224,634.79854304356,-0.0033981528124604,0.03704935269135,554.2415257289
0.37578124999999,0.03845408374179,0,55.135445371873,0.37740849761217,7.7276503435081,1.0333825405741,634.91087036039,-0.0034016854517837,0.037079661446502,554.34064653776
0.37609374999999,0.038486666224151,0,55.135245873723,0.37741956759283,7.7275171045936,1.0334130419292,635.02312368678,-0.003405207007936,0.037109969337968,554.43970296484
0.37640624999999,0.038519249708808,0,55.135046403101,0.37743063770661,7.7273838660259,1.0334435436876,635.13530305395,-0.0034087664447757,0.037140276365776,554.53869507731
0.37671874999999,0.038551834195765,0,55.134846959972,0.37744170795362,7.7272506278181,1.0334740458491,635.24740852552,-0.0034123169578493,0.037170582529968,554.63762288528
0.37703124999999,0.038584419685017,0,55.134647544334,0.3774527783332,7.7271173899836,1.0335045484133,635.35944013346,-0.0034158921433953,0.037200887830571,554.73648645372
0.37734374999999,0.038617006176561,0,55.29192847113,0.37746384884589,7.7269841525361,1.0335350513801,635.47139799252,-0.0034193891881545,0.037231192267617,554.83528578978
0.37765624999999,0.038649593670403,0,55.291729110409,0.37747491949113,7.7268509154883,1.0335655547492,635.5832820581,-0.003422939467307,0.037261495841149,554.93402096644
0.37796874999999,0.038682182166534,0,55.370269934627,0.3774859902688,7.7267176788541,1.0335960585204,635.69509241253,-0.0034265024783667,0.037291798551186,555.03269202267
0.37828124999999,0.038714771664953,0,55.370070628783,0.37749706117905,7.7265844426467,1.0336265626934,635.80682914477,-0.0034300074136119,0.03732210039777,555.13129897365
0.37859374999999,0.03874736216566,0,55.369871350352,0.37750813222142,7.726451206879,1.0336570672681,635.91849223141,-0.0034335602083211,0.037352401380933,555.22984188864
0.37890624999999,0.038779953668654,0,55.369672099314,0.37751920339581,7.7263179715651,1.0336875722441,636.03008177718,-0.0034370867437644,0.037382701500708,555.32832079483
0.37921874999999,0.038812546173934,0,55.369472875653,0.37753027470229,7.7261847367174,1.0337180776214,636.14159775351,-0.0034406775672654,0.037413000757128,555.42673574778
0.37953124999999,0.038845139681493,0,55.369273679363,0.37754134614034,7.7260515023498,1.0337485833995,636.25304031674,-0.0034441933391791,0.037443299150222,555.52508676025
0.37984374999999,0.038877734191336,0,55.36907451042,0.37755241771043,7.7259182684749,1.0337790895783,636.36440943418,-0.0034477264979538,0.037473596680029,555.62337388751
0.38015624999999,0.038910329703459,0,55.447615526284,0.3775634894118,7.7257850351058,1.0338095961577,636.47570514093,-0.0034513170889295,0.037503893346584,555.72159718989
0.38046874999999,0.038942926217858,0,55.447416411996,0.37757456124467,7.725651802256,1.0338401031372,636.58692754503,-0.0034548657296333,0.037534189149913,555.81975667665
0.38078124999999,0.038975523734535,0,55.447217325002,0.37758563320876,7.7255185699384,1.0338706105167,636.69807666881,-0.0034584072837327,0.037564484090055,555.91785240056
0.38109374999999,0.039008122253488,0,55.447018265304,0.37759670530419,7.7253853381662,1.033901118296,636.80915257863,-0.0034619193607379,0.037594778167038,556.01588439444
0.38140624999999,0.03904072177471,0,55.446819232872,0.37760777753047,7.7252521069521,1.0339316264748,636.92015524286,-0.0034655083580734,0.0376250713809,556.11385272596
0.38171874999999,0.039073322298206,0,55.446620227709,0.3776188498875,7.7251188763098,1.0339621350529,637.03108481905,-0.0034690281306016,0.037655363731669,556.21175740626
0.38203124999999,0.039105923823974,0,55.446421249782,0.37762992237551,7.7249856462518,1.0339926440301,637.14194127749,-0.0034725721257252,0.037685655219385,556.30959848518
0.38234374999999,0.03913852635201,0,55.446222299078,0.37764099499407,7.7248524167909,1.0340231534061,637.25272464312,-0.0034761738503813,0.037715945844077,556.40737601794
0.38265624999999,0.039171129882312,0,55.44602337559,0.37765206774306,7.72471918794,1.0340536631807,637.3634350807,-0.0034796674633673,0.03774623560578,556.50509000645
0.38296874999999,0.03920373441488,0,55.445824479296,0.37766314062234,7.724585959712,1.0340841733537,637.47407251006,-0.0034832360764422,0.037776524504526,556.60274053261
0.38328124999999,0.039236339949712,0,55.445625610191,0.37767421363169,7.7244527321202,1.0341146839249,637.58463706049,-0.0034867662882756,0.037806812540345,556.7003276139
0.38359374999999,0.039268946486804,0,55.445426768253,0.37768528677134,7.7243195051773,1.0341451948939,637.69512871531,-0.0034903456029527,0.037837099713277,556.79785131213
0.38390624999999,0.039301554026155,0,55.445227953465,0.37769636004082,7.724186278896,1.0341757062606,637.80554759104,-0.0034938697664436,0.037867386023351,556.89531163689
0.38421874999999,0.039334162567768,0,55.445029165814,0.37770743344012,7.7240530532892,1.0342062180247,637.91589367048,-0.0034974348861805,0.037897671470598,556.99270865708
0.38453124999999,0.039366772111639,0,55.444830405285,0.37771850696906,7.7239198283696,1.0342367301861,638.02616701841,-0.003501007533132,0.037927956055059,557.09004239944
0.38484374999999,0.039399382657763,0,55.444631671876,0.37772958062746,7.8025267616304,1.0342672427444,638.13636774849,-0.0035044979584101,0.037958239776757,557.18731288505
0.38515624999999,0.039431994206143,0,55.444432965552,0.37774065441551,7.8023935381235,1.0342977556995,638.24649578673,-0.0035080762555823,0.037988522635733,557.28452019614
0.38546874999999,0.039464606756775,0,55.444234286301,0.3777517283325,7.802260315342,1.0343282690511,638.35655128342,-0.0035115955455317,0.03801880463202,557.38166433762
0.38578124999999,0.039497220309659,0,55.444035634122,0.37776280237894,7.8021270932987,1.0343587827989,638.46653422898,-0.0035151402586491,0.038049085765646,557.47874537166
0.38609374999999,0.039529834864794,0,55.443837008986,0.3777738765541,7.8019938720059,1.0343892969429,638.57644465643,-0.0035187203347734,0.038079366036651,557.57576333713
0.38640624999999,0.039562450422173,0,55.443638410887,0.37778495085841,7.8018606514764,1.0344198114826,638.68628267823,-0.0035222415479758,0.038109645445059,557.67271825012
0.38671874999999,0.039595066981802,0,55.443439839804,0.37779602529124,7.8017274317228,1.0344503264179,638.79604828083,-0.003525798629704,0.038139923990914,557.76961018201
0.38703124999999,0.039627684543676,0,55.443241295723,0.37780709985259,7.8015942127576,1.0344808417486,638.90574152496,-0.0035293640366953,0.038170201674243,557.86643915725
0.38734374999999,0.039660303107792,0,55.443042778652,0.37781817454265,7.8014609945939,1.0345113574744,639.01536249783,-0.0035328898019414,0.038200478495074,557.96320521338
0.38765624999999,0.039692922674146,0,55.44284428854,0.377829249361,7.8013277772434,1.0345418735952,639.12491117644,-0.0035364546971217,0.038230754453452,558.05990839933
0.38796874999999,0.039725543242749,0,55.442645825388,0.37784032430762,7.801194560719,1.0345723901105,639.2343876657,-0.0035399916353393,0.038261029549405,558.15654874403
0.38828124999999,0.039758164813587,0,55.442447389177,0.37785139938215,7.8010613450327,1.0346029070204,639.34379199333,-0.0035435084665098,0.038291303782968,558.2531262817
0.38859374999999,0.039790787386659,0,55.442248979912,0.37786247458466,7.8009281301973,1.0346334243244,639.45312418239,-0.0035470640330116,0.038321577154165,558.34964108271
0.38890624999999,0.03982341096197,0,55.442050597554,0.37787354991508,7.8007949162254,1.0346639420224,639.56238427641,-0.0035506554675287,0.038351849663041,558.44609318312
0.38921874999999,0.039856035539515,0,55.441852242101,0.37788462537302,7.8006617031292,1.0346944601141,639.67157238499,-0.0035541766889445,0.038382121309623,558.54248258288
0.38953124999999,0.039888661119292,0,55.441653913537,0.37789570095873,7.800528490921,1.0347249785994,639.780688496,-0.0035577231666492,0.038412392093947,558.63880935779
0.38984374999999,0.039921287701301,0,55.598935926805,0.37790677667169,7.8003952796131,1.0347554974779,639.88973264224,-0.0035613127112938,0.038442662016045,558.73507354674
0.39015624999999,0.039953915285539,0,55.598737651973,0.37791785251213,7.800262069218,1.0347860167495,639.99870495009,-0.0035648227777215,0.03847293107595,558.83127515898
0.39046874999999,0.039986543872006,0,55.598539403989,0.37792892847964,7.878869017228,1.0348165364139,640.10760536986,-0.0035683994962073,0.038503199273695,558.92741427385
0.39078124999999,0.040019173460524,0,55.598341174277,0.37794000457538,7.8787358087012,1.0348470564717,640.21643115399,-0.0035757537748747,0.038533466610923,559.02349163472
0.39109374999999,0.040051804051587,0,55.598142987901,0.3779510807968,7.8786026011174,1.0348775769211,640.32519076759,-0.0035755274052366,0.038563733082936,559.11950501444
0.39140624999999,0.040084435644731,0,55.597944820367,0.37796215714487,7.8784693944956,1.0349080977625,640.43387595285,-0.0035790815868617,0.038593998694403,559.21545682063
0.39171874999999,0.040117068240095,0,55.597746679616,0.37797323361987,7.8783361888477,1.0349386189959,640.54248950905,-0.0035825903633325,0.038624263443842,559.31134625998
0.39203124999999,0.040149701837679,0,55.597548565652,0.3779843102212,7.8782029841857,1.0349691406209,640.65103140299,-0.0035861752854525,0.038654527331287,559.40717340731
0.39234374999999,0.040182336437483,0,55.597350478438,0.37799538694906,7.8780697805221,1.0349996626374,640.75950175706,-0.0035897142971793,0.03868479035677,559.50293826055
0.39265624999999,0.040214972039505,0,55.597152417968,0.37800646380307,7.8779365778686,1.0350301850451,640.86790059566,-0.0035932413693183,0.038715052520329,559.59864087161
0.39296874999999,0.040247608643744,0,55.596954384222,0.3780175407832,7.8778033762373,1.0350607078438,640.97622790685,-0.0035968425745566,0.038745313821998,559.69428130991
0.39328124999999,0.040280246250198,0,55.596756377198,0.37802861788952,7.8776701756404,1.0350912310332,641.0844838236,-0.0036003859266675,0.038775574261803,559.78985956934
0.39359374999999,0.040312884858865,0,55.596558396877,0.37803969512158,7.8775369760899,1.0351217546132,641.19266835216,-0.0036039366954903,0.03880583383978,559.88537571324
0.39390624999999,0.040345524469743,0,55.596360443241,0.37805077247948,7.8774037775979,1.0351522785835,641.30078156566,-0.0036074515323659,0.038836092555966,559.98082977124
0.39421874999999,0.04037816508283,0,55.596162516289,0.3780618499629,7.8772705801767,1.0351828029438,641.40882347106,-0.0036109949660991,0.038866350410388,560.07622180238
0.39453124999999,0.040410806698131,0,55.59596461598,0.37807292757205,7.8771373838376,1.035213327694,641.51679409066,-0.0036145806333597,0.038896607403088,560.17155183598
0.39484374999999,0.040443449315633,0,55.595766742328,0.37808400530624,7.8770041885928,1.0352438528338,641.62469352243,-0.0036181484648304,0.038926863534088,560.26681990827
0.39515624999999,0.040476092935346,0,55.595568895311,0.3780950831659,7.9556111519349,1.0352743783629,641.7325218218,-0.0036216864588769,0.038957118803431,560.36202605644
0.39546874999999,0.040508737557262,0,55.674111232382,0.37810616115086,7.9554779589147,1.0353049042812,641.8402790177,-0.0036252034285294,0.038987373211146,560.45717031172
0.39578124999999,0.040541383181379,0,55.673913438576,0.37811723926045,7.9553447670246,1.0353354305885,641.94796506998,-0.0036288417813211,0.039017626757269,560.55225276227
0.39609374999999,0.040574029807702,0,55.752455828846,0.37812831749506,7.9552115762764,1.0353659572844,642.05558019134,-0.0036323412889248,0.039047879441828,560.64727336993
0.39640624999999,0.040606677436222,0,55.752258088202,0.37813939585437,7.9550783866817,1.0353964843688,642.16312428736,-0.0036359124787172,0.039078131264863,560.7422322315
0.39671874999999,0.04063932606694,0,55.752060374129,0.37815047433838,7.9549451982527,1.0354270118415,642.27059746095,-0.0036394833701022,0.039108382226398,560.83712937592
0.39703124999999,0.040671975699857,0,55.751862686597,0.37816155294672,8.0335521684812,1.0354575397021,642.37799975067,-0.0036430459893966,0.039138632326476,560.93196482871
0.39734374999999,0.040704626334971,0,55.7516650256,0.3781726316798,8.0334189824184,1.0354880679505,642.48533121625,-0.0036465860454609,0.039168881565128,561.0267386319
0.39765624999999,0.040737277972278,0,55.751467391127,0.37818371053677,8.0332857975564,1.0355185965865,642.59259189409,-0.0036501205019154,0.039199129942383,561.12145082821
0.39796874999999,0.040769930611778,0,55.751269783153,0.37819478951805,8.0331526139066,1.0355491256098,642.69978179254,-0.0036536974100131,0.039229377458276,561.21610146724
0.39828124999999,0.040802584253467,0,55.751072201684,0.37820586862327,8.0330194314814,1.0355796550202,642.80690103529,-0.0036572141821366,0.039259624112841,561.31069056964
0.39859374999999,0.040835238897351,0,55.750874646676,0.37821694785218,8.0328862502917,1.0356101848174,642.91394958268,-0.003660778207047,0.039289869906115,561.40521818995
0.39890624999999,0.040867894543425,0,55.750677118145,0.37822802720516,8.0327530703497,1.0356407150013,643.02092751807,-0.0036643472684209,0.039320114838125,561.49968436956
0.39921874999999,0.04090055119168,0,55.750479616069,0.37823910668151,8.0326198916668,1.0356712455716,643.12783488903,-0.0036679158621099,0.039350358908904,561.59408914056
0.39953124999999,0.040933208842125,0,55.750282140418,0.37825018628144,8.0324867142546,1.0357017765281,643.23467176722,-0.0036714308397046,0.039380602118493,561.68843251866
0.39984374999999,0.040965867494752,0,55.750084691186,0.37826126600467,8.0323535381241,1.0357323078706,643.34143812133,-0.0036750177431422,0.039410844466921,561.78271458937
0.40015624999999,0.040998527149561,0,55.749887268382,0.37827234585121,8.0322203632877,1.0357628395987,643.44813406566,-0.0036785800621054,0.039441085954216,561.87693536184
0.40046874999999,0.041031187806556,0,55.749689871959,0.378283425821,8.0320871897562,1.0357933717124,643.55475962632,-0.0036821260583257,0.03947132658042,561.97109487222
0.40078124999999,0.04106384946573,0,55.828232659413,0.3782945059136,8.0319540175418,1.0358239042113,643.66131484273,-0.0036856902384491,0.039501566345558,562.06519318063
0.40109374999999,0.041096512127083,0,55.828035315743,0.37830558612917,8.0318208466559,1.0358544370953,643.76779977308,-0.0036892361233401,0.039531805249672,562.15923030829
0.40140624999999,0.041129175790611,0,55.827837998431,0.37831666646745,8.0316876771093,1.0358849703641,643.87421442042,-0.0036928196683231,0.039562043292789,562.25320630513
0.40171874999999,0.041161840456318,0,55.82764070747,0.37832774692826,8.0315545089142,1.0359155040175,643.98055889982,-0.0036963605638618,0.039592280474943,562.34712119962
0.40203124999999,0.041194506124197,0,55.827443442829,0.37833882751176,8.0314213420814,1.0359460380552,644.086833213,-0.0036998958637291,0.03962251679617,562.4409750279
0.40234374999999,0.041227172794252,0,55.827246204505,0.37834990821749,8.110028334103,1.0359765724771,644.19303737445,-0.0037034917202029,0.039652752256501,562.53476785934
0.40265624999999,0.041259840466477,0,55.827048992477,0.37836098904561,8.1098951700295,1.0360071072829,644.29917148384,-0.0037070547917009,0.039682986855973,562.62849970112
0.40296874999999,0.041292509140873,0,55.826851806749,0.37837206999582,8.1097620073528,1.0360376424724,644.40523559906,-0.0037105741239532,0.039713220594611,562.72217059014
0.40328124999999,0.04132517881744,0,55.826654647278,0.37838315106801,8.1096288460836,1.0360681780453,644.51122969961,-0.0037141315498484,0.03974345347246,562.81578058068
0.40359374999999,0.041357849496173,0,55.82645751408,0.37839423226222,8.1094956862337,1.0360987140015,644.61715385473,-0.003717712322869,0.039773685489543,562.90932971943
0.40390624999999,0.041390521177073,0,55.826260407133,0.37840531357805,8.1093625278145,1.0361292503406,644.72300817958,-0.0037212018668779,0.039803916645897,563.00281801088
0.40421874999999,0.041423193860136,0,55.826063326413,0.37841639501561,8.109229370837,1.0361597870625,644.82879258864,-0.0037247897144603,0.039834146941555,563.0962455409
0.40453124999999,0.041455867545365,0,55.82586627191,0.37842747657477,8.1090962153124,1.036190324167,644.93450719677,-0.003728374455321,0.039864376376555,563.1896123182
0.40484374999999,0.041488542232752,0,55.825669243623,0.3784385582552,8.108963061252,1.0362208616538,645.04015207399,-0.0037319236455771,0.039894604950921,563.28291838582
0.40515624999999,0.041521217922304,0,55.825472241533,0.37844964005705,8.1088299086672,1.0362513995226,645.14572724171,-0.0037354687465488,0.039924832664691,563.37616378178
0.40546874999999,0.041553894614017,0,55.825275265615,0.37846072197985,8.1086967575688,1.0362819377734,645.25123270095,-0.0037390685367043,0.039955059517903,563.46934855602
0.40578124999999,0.041586572307887,0,55.825078315856,0.37847180402382,8.1873037654481,1.0363124764058,645.3566685855,-0.0037425893701935,0.039985285510589,563.56247271696
0.40609374999999,0.041619251003912,0,55.824881392267,0.37848288618887,8.187170617356,1.0363430154196,645.46203485287,-0.0037461760927876,0.040015510642773,563.65553634226
0.40640624999999,0.041651930702095,0,55.824684494815,0.37849396847459,8.1870374707838,1.0363735548146,645.56733160389,-0.0037497329679949,0.040045734914498,563.74853944737
0.40671874999999,0.041684611402428,0,55.903227780978,0.37850505088082,8.1869043257427,1.0364040945905,645.67255885322,-0.0037533110220728,0.040075958325788,563.84148208257
0.40703124999999,0.041717293104918,0,55.90303093576,0.37851613340786,8.1867711822433,1.0364346347472,645.77771666086,-0.003756875015383,0.040106180876691,563.93436427183
0.40734374999999,0.041749975809558,0,55.902834116654,0.37852721605511,8.1866380402971,1.0364651752844,645.88280507582,-0.0037604321617134,0.040136402567225,564.02718606135
0.40765624999999,0.041782659516349,0,55.902637323628,0.37853829882317,8.1865048999147,1.0364957162019,645.98782412367,-0.0037639996210505,0.040166623397436,564.11994749119
0.40796874999999,0.041815344225288,0,55.902440556682,0.378549381711,8.1863717611073,1.0365262574995,646.09277388262,-0.0037675330377771,0.040196843367347,564.21264858763
0.40828124999999,0.041848029936373,0,55.902243815808,0.37856046471906,8.1862386238861,1.0365567991768,646.19765436296,-0.0037710934679494,0.040227062476993,564.30528941701
0.40859374999999,0.041880716649607,0,55.902047100985,0.37857154784706,8.1861054882621,1.0365873412338,646.30246563404,-0.0037746309436569,0.040257280726411,564.39786999172
0.40890624999999,0.041913404364986,0,55.901850412179,0.37858263109491,8.1859723542457,1.0366178836702,646.40720770771,-0.0037781871612633,0.040287498115638,564.49039035798
0.40921874999999,0.041946093082507,0,55.901653749399,0.37859371446246,8.185839221848,1.0366484264857,646.51188062437,-0.0037817826802799,0.040317714644701,564.58285057073
0.40953124999999,0.041978782802169,0,55.901457112646,0.37860479794967,8.1857060910802,1.0366789696802,646.61648448601,-0.003785330498369,0.040347930313631,564.67525064344
0.40984374999999,0.042011473523973,0,55.901260501874,0.37861588155638,8.2643131194331,1.0367095132533,646.7210192854,-0.0037888924567464,0.040378145122468,564.76759062077
0.41015624999999,0.042044165247915,0,55.901063917093,0.3786269652824,8.2641799919569,1.036740057205,646.82548507235,-0.0037924714235675,0.04040835907124,564.85987055233
0.41046874999999,0.042076857973998,0,55.900867358283,0.37863804912758,8.3427870236233,1.0367706015349,646.92988192268,-0.0037960290105538,0.040438572159986,564.95209046791
0.41078124999999,0.042109551702217,0,55.900670825423,0.37864913309219,8.3426538994821,1.0368011462428,647.03420986273,-0.0037995696114622,0.040468784388738,565.04425039383
0.41109374999999,0.042142246432571,0,55.900474318511,0.37866021717549,8.3425207770244,1.0368316913286,647.13846892778,-0.0038031209326083,0.040498995757524,565.13635038488
0.41140624999999,0.04217494216506,0,55.900277837538,0.378671301378,8.3423876562616,1.0368622367919,647.24265915594,-0.0038067036144839,0.040529206266381,565.22839049048
0.41171874999999,0.04220763889978,0,55.90008138241,0.37868238569913,8.3422545372054,1.0368927826327,647.34678027206,-0.0038108044799231,0.040559415915401,565.3203708925
0.41203124999999,0.042240336636439,0,55.899884953324,0.3786934701389,8.3421214198638,1.0369233288505,647.4508333523,-0.003813783870508,0.040589624704444,565.41229111786
0.41234374999999,0.042273035375325,0,55.899688550058,0.37870455469728,8.3419883042482,1.0369538754452,647.55481731982,-0.0038174251641401,0.040619832633717,565.50415176075
0.41265624999999,0.042305735116336,0,55.899492172684,0.37871563937402,8.34185519037,1.0369844224166,647.65873271108,-0.0038209651775138,0.040650039703189,565.59595263095
0.41296874999999,0.042338435859477,0,55.899295821174,0.37872672416917,8.3417220782397,1.0370149697645,647.76257948168,-0.0038245302562688,0.040680245912902,565.68769379948
0.41328124999999,0.042371137604745,0,55.899099495529,0.37873780908246,8.3415889678681,1.0370455174886,647.86635770773,-0.0038280775747073,0.040710451262881,565.77937529534
0.41359374999999,0.042403840352137,0,55.898903195711,0.37874889411381,8.3414558592654,1.0370760655887,647.97006737844,-0.0038316688285186,0.040740655753168,565.87099716104
0.41390624999999,0.042436544101652,0,55.898706921741,0.37875997926319,8.3413227524426,1.0371066140646,648.07370861302,-0.0038352117096506,0.040770859383789,565.96255942277
0.41421874999999,0.042469248853289,0,55.898510673575,0.37877106453035,8.4199298048904,1.0371371629161,648.17728142171,-0.0038387525316465,0.040801062154784,566.0540621263
0.41453124999999,0.04250195460705,0,55.89831445122,0.37878214991534,8.4197967016588,1.0371677121429,648.28078584169,-0.003842298131027,0.040831264066181,566.14550531271
0.41484374999999,0.04253466136293,0,55.898118254654,0.37879323541781,8.4196636002386,1.0371982617448,648.38422191587,-0.0038458511357142,0.040861465118016,566.23688901937
0.41515624999999,0.042567369120931,0,55.897922083871,0.37880432103784,8.4195305006403,1.0372288117216,648.48758963075,-0.0038494992224133,0.040891665310323,566.32821331285
0.41546874999999,0.042600077881047,0,55.897725938852,0.37881540677533,8.4193974028743,1.0372593620731,648.59088918002,-0.0038530085135339,0.040921864643133,566.41947815566
0.41578124999999,0.04263278764328,0,55.897529819587,0.37882649263005,8.4192643069512,1.037289912799,648.69412046839,-0.0038566006627997,0.040952063116479,566.51068365853
0.41609374999999,0.042665498407628,0,55.897333726058,0.37883757860189,8.4191312128813,1.0373204638992,648.79728361575,-0.0038601498647808,0.040982260730399,566.60182981284
0.41640624999999,0.04269821017409,0,55.897137658263,0.3788486646907,8.418998120675,1.0373510153733,648.90037864275,-0.0038636997170774,0.041012457484922,566.69291668173
0.41671874999999,0.042730922942665,0,55.896941616187,0.37885975089662,8.4188650303429,1.0373815672213,649.00340556432,-0.0038672896904458,0.04104265338008,566.78394430717
0.41703124999999,0.042763636713348,0,55.896745599816,0.37887083721915,8.4187319418954,1.0374121194427,649.10636448772,-0.0038708249049716,0.04107284841591,566.87491270099
0.41734374999999,0.042796351486146,0,55.896549609135,0.37888192365849,8.4185988553427,1.0374426720376,649.20925536783,-0.0038744349934256,0.041103042592444,566.96582193636
0.41765624999999,0.042829067261049,0,55.89635364413,0.3788930102144,8.4184657706954,1.0374732250055,649.31207835337,-0.0038779744132513,0.041133235909718,567.05667201503
0.41796874999999,0.042861784038063,0,55.896157704787,0.37890409688658,8.4183326879633,1.0375037783463,649.41483340251,-0.003881544226391,0.041163428367762,567.14746298843
0.41828124999999,0.042894501817179,0,55.895961791109,0.37891518367547,8.418199607157,1.0375343320597,649.51752059597,-0.0038851202083049,0.041193619966609,567.23819490984
0.41859374999999,0.042927220598405,0,55.895765903063,0.37892627058039,8.4180665282867,1.0375648861456,649.62014000257,-0.003888642564912,0.041223810706294,567.32886778043
0.41890624999999,0.042959940381731,0,55.89557004065,0.37893735760154,8.4179334513628,1.0375954406037,649.72269158917,-0.0038922394858389,0.04125400058685,567.41948168641
0.41921874999999,0.042992661167159,0,55.895374203861,0.37894844473849,8.4178003763957,1.0376259954338,649.82517548284,-0.0038957901994178,0.041284189608309,567.51003663349
0.41953124999999,0.043025382954691,0,55.973918550145,0.3789595319914,8.4176673033953,1.0376565506357,649.92759166087,-0.0038993666274876,0.041314377770707,567.60053266232
0.41984374999999,0.043058105744321,0,55.973722764553,0.37897061936014,8.4175342323723,1.0376871062091,650.02994024626,-0.0039028837367727,0.041344565074073,567.69096980681
0.42015624999999,0.043090829536052,0,55.973527004526,0.37898170684456,8.4174011633362,1.0377176621538,650.1322211587,-0.0039064987193092,0.041374751518448,567.78134813256
0.42046874999999,0.043123554329881,0,55.973331270071,0.37899279444465,8.4960082537777,1.0377482184697,650.23443452295,-0.0039101032243042,0.041404937103861,567.87166765506
0.42078124999999,0.043156280125803,0,55.973135561179,0.37900388215995,8.4958751887466,1.0377787751564,650.33658042347,-0.0039136340880483,0.041435121830341,567.96192839354
0.42109374999999,0.043189006923822,0,55.972939877821,0.37901496999074,8.495742125733,1.0378093322138,650.43865882258,-0.0039172115813429,0.041465305697927,568.05213041796
0.42140624999999,0.043221734723935,0,55.972744219999,0.37902605793672,8.4956090647471,1.0378398896416,650.54066978764,-0.0039207962438643,0.041495488706651,568.14227375202
0.42171874999999,0.043254463526141,0,55.972548587698,0.37903714599771,8.4954760057991,1.0378704474397,650.64261339418,-0.0039243522240398,0.041525670856546,568.23235843247
0.42203124999999,0.043287193330438,0,55.972352980903,0.37904823417373,8.4953429488993,1.0379010056077,650.74448965592,-0.0039279125364017,0.041555852147643,568.32238449663
0.42234374999999,0.043319924136826,0,55.97215739959,0.37905932246466,8.5739500515376,1.0379315641455,650.8462986238,-0.0039314613033034,0.041586032579982,568.41235197524
0.42265624999999,0.043352655945301,0,55.971961843769,0.37907041087042,8.5738169987637,1.0379621230529,650.94804032321,-0.0039350430486579,0.041616212153591,568.50226093357
0.42296874999999,0.043385388755866,0,55.971766313421,0.37908149939077,8.5736839480679,1.0379926823295,651.04971482452,-0.0039386027045865,0.041646390868502,568.59211138128
0.42328124999999,0.043418122568517,0,55.971570808518,0.37909258802549,8.5735508994599,1.0380232419753,651.1513221705,-0.0039421368689436,0.041676568724756,568.68190334871
0.42359374999999,0.043450857383253,0,55.971375329076,0.37910367677495,8.57341785295,1.03805380199,651.25286235882,-0.0039457313449213,0.041706745722377,568.7716369153
0.42390624999999,0.043483593200078,0,55.97117987506,0.37911476563842,8.5732848085481,1.0380843623733,651.35433545396,-0.0039493374813414,0.041736921861402,568.86131208997
0.42421874999999,0.043516330018982,0,55.97098444646,0.37912585461638,8.5731517662641,1.0381149231251,651.45574154593,-0.0039528929377261,0.041767097141871,568.9509288978
0.42453124999999,0.043549067839968,0,55.970789043277,0.37913694370817,8.5730187261078,1.0381454842451,651.55708065285,-0.0039564277001235,0.041797271563804,569.04048738338
0.42484374999999,0.043581806663036,0,55.970593665485,0.37914803291397,8.5728856880891,1.0381760457331,651.65835273732,-0.0039600740329777,0.041827445127248,569.12998762378
0.42515624999999,0.043614546488181,0,55.970398313088,0.37915912223397,8.5727526522183,1.0382066075889,651.7595580142,-0.0039635663790494,0.041857617832224,569.21942958029
0.42546874999999,0.043647287315405,0,55.970202986046,0.37917021166736,8.5726196185045,1.0382371698122,651.86069637561,-0.0039671262796809,0.041887789678778,569.3088133482
0.42578124999999,0.043680029144709,0,55.970007684381,0.37918130121469,8.5724865869581,1.0382677324029,651.96176791086,-0.0039706943390294,0.041917960666934,569.39813895296
0.42609374999999,0.043712771976085,0,55.969812408067,0.37919239087524,8.572353557589,1.0382982953607,652.06277264543,-0.0039742994044216,0.041948130796726,569.48740644279
0.42640624999999,0.04374551580954,0,55.96961715708,0.3792034806495,8.5722205304069,1.0383288586854,652.16371065911,-0.0039778764731651,0.041978300068194,569.57661582997
0.42671874999999,0.043778260645063,0,55.969421931431,0.37921457053699,8.5720875054215,1.0383594223768,652.26458197957,-0.0039814481531686,0.042008468481361,569.66576715928
0.42703124999999,0.043811006482663,0,55.969226731084,0.37922566053772,8.5719544826425,1.0383899864346,652.36538667117,-0.0039849811175091,0.042038636036272,569.75486045616
0.42734374999999,0.043843753322332,0,55.969031556045,0.37923675065145,8.5718214620797,1.0384205508586,652.46612470982,-0.0039885876414666,0.04206880273295,569.84389579739
0.42765624999999,0.043876501164076,0,55.968836406288,0.37924784087818,8.5716884437428,1.0384511156487,652.5667962289,-0.0039921140434549,0.04209896857144,569.93287316695
0.42796874999999,0.043909250007885,0,55.968641281813,0.37925893121784,8.6502955851218,1.0384816808046,652.66740118322,-0.003995706447822,0.042129133551765,570.02179264779
0.42828124999999,0.04394199985376,0,55.968446182608,0.37927002167023,8.6501625712658,1.038512246326,652.76793966828,-0.0039992781745753,0.042159297673959,570.11065425229
0.42859374999999,0.043974750701704,0,55.968251108651,0.37928111223537,8.6500295596647,1.0385428122129,652.86841171218,-0.004002855462835,0.042189460938062,570.19945802606
0.42890624999999,0.044007502551714,0,55.96805605994,0.37929220291291,8.6498965503286,1.0385733784648,652.96881737244,-0.0040064227373451,0.042219623344103,570.28820400798
0.42921874999999,0.044040255403788,0,56.046601193943,0.37930329370311,8.728503700747,1.0386039450817,653.06915667478,-0.0040099868084271,0.042249784892114,570.3768922205
0.42953124999999,0.044073009257923,0,56.046406195688,0.3793143846055,8.7283706959696,1.0386345120632,653.16942966834,-0.0040135630662285,0.042279945582131,570.4655227214
0.42984374999999,0.044105764114124,0,56.046211222626,0.3793254756201,8.7282376934853,1.0386650794092,653.26963637492,-0.0040171453296966,0.04231010541419,570.55409552782
0.43015624999999,0.044138519972383,0,56.046016274761,0.37933656674689,8.7281046933039,1.0386956471195,653.36977689192,-0.0040206803868477,0.04234026438832,570.6426106735
0.43046874999999,0.044171276832702,0,56.045821352092,0.37934765798555,8.7279716954355,1.0387262151939,653.46985118944,-0.004024281228539,0.042370422504553,570.73106823302
0.43078124999999,0.04420403469508,0,56.045626454588,0.37935874933625,8.7278386998893,1.038756783632,653.56985935212,-0.0040278607805664,0.042400579762927,570.81946820154
0.43109374999999,0.044236793559514,0,56.045431582248,0.37936984079876,8.7277057066751,1.0387873524338,653.66980142083,-0.0040314453742227,0.042430736163472,570.90781064341
0.43140624999999,0.044269553426007,0,56.045236735055,0.37938093237284,8.7275727158021,1.0388179215989,653.7696774717,-0.004034963887206,0.042460891706224,570.99609555509
0.43171874999999,0.044302314294555,0,56.045041912996,0.37939202405851,8.7274397272798,1.0388484911272,653.86948744823,-0.0040385760169588,0.042491046391216,571.08432303225
0.43203124999999,0.044335076165153,0,56.044847116066,0.37940311585563,8.7273067411178,1.0388790610184,653.9692314922,-0.0040421311521831,0.042521200218478,571.17249306486
0.43234374999999,0.044367839037808,0,56.044652344243,0.37941420776406,8.7271737573255,1.0389096312724,654.06890959498,-0.0040457044148885,0.042551353188049,571.26060570974
0.43265624999999,0.044400602912515,0,56.044457597537,0.37942529978398,8.7270407759125,1.0389402018888,654.16852183406,-0.004049248875939,0.042581505299957,571.34866099374
0.43296874999999,0.04443336778927,0,56.044262875902,0.37943639191484,8.7269077968878,1.0389707728676,654.26806819638,-0.0040528314209665,0.042611656554241,571.43665896322
0.43328124999999,0.044466133668078,0,56.04406817936,0.37944748415681,8.7267748202611,1.0390013442084,654.3675487825,-0.0040563850893847,0.042641806950928,571.5245996484
0.43359374999999,0.044498900548931,0,56.04387350788,0.37945857650963,8.8053820035222,1.0390319159111,654.46696358437,-0.0040599760852852,0.042671956490056,571.61248309785
0.43390624999999,0.044531668431833,0,56.043678861455,0.37946966897339,8.8052490317197,1.0390624879754,654.56631269625,-0.004063522529113,0.042702105171658,571.70030932641
0.43421874999999,0.044564437316779,0,56.043484240088,0.37948076154763,8.8838562198239,1.0390930604011,654.6655961191,-0.0040671009341712,0.042732252995761,571.78807839816
0.43453124999999,0.044597207203774,0,56.04328964374,0.37949185423267,8.8837232528831,1.039123633188,654.76481387735,-0.004070714237838,0.042762399962409,571.87579033373
0.43484374999999,0.044629978092811,0,56.043095072412,0.37950294702822,8.8835902883867,1.0391542063359,654.86396606355,-0.0040742939638424,0.04279254607163,571.96344515787
0.43515624999999,0.044662749983888,0,56.042900526107,0.37951403993413,8.883457326345,1.0391847798445,654.96305276446,-0.0040778002299071,0.042822691323454,572.05104291464
0.43546874999999,0.044695522877012,0,56.04270600479,0.37952513295033,8.9620645242468,1.0392153537137,655.06207388806,-0.0040813964815152,0.042852835717921,572.1385836561
0.43578124999999,0.044728296772173,0,56.04251150846,0.37953622607676,9.0406717246209,1.0392459279432,655.16102953986,-0.0040850031365324,0.042882979255062,572.22606741319
0.43609374999999,0.044761071669375,0,56.042317037107,0.37954731931313,9.0405387699962,1.0392765025329,655.25991980873,-0.0040885462717125,0.04291312193491,572.31349419512
0.43640624999999,0.044793847568614,0,56.042122590725,0.37955841265955,9.040405817863,1.0393070774824,655.35874466081,-0.0040921596402255,0.042943263757495,572.40086408966
0.43671874999999,0.044826624469892,0,56.041928169299,0.37956950611586,9.0402728682302,1.0393376527916,655.45750421121,-0.004095711902009,0.042973404722855,572.48817708225
0.43703124999999,0.044859402373205,0,56.041733772808,0.37958059968184,9.0401399211069,1.0393682284602,655.55619844629,-0.0040992921667403,0.043003544831021,572.57543323877
0.43734374999999,0.044892181278554,0,56.041539401251,0.37959169335764,9.0400069765026,1.0393988044881,655.65482742997,-0.0041028718476023,0.043033684082028,572.66263258766
0.43765624999999,0.044924961185797,0,56.041345047641,0.37960278714369,9.0398740344312,1.0394293808756,655.75338888323,-0.0041095276257388,0.043063822477386,572.74977574698
0.43796874999999,0.044957742095326,0,56.119890889887,0.37961388103835,9.0397410948914,1.0394599576212,655.85188970671,-0.0041100261795453,0.043093960012785,572.83686092543
0.43828124999999,0.044990524006961,0,56.119696593103,0.37962497504206,9.0396081578989,1.0394905347253,655.95032363928,-0.0041130391928173,0.043124096692647,572.92388996851
0.43859374999999,0.045023306920266,0,56.119502321121,0.37963606915536,9.0394752234609,1.0395211121879,656.04869160339,-0.0041171598135554,0.043154232515223,573.01086256223
0.43890624999999,0.045056090835773,0,56.119308074048,0.37964716337755,9.0393422915871,1.0395516900087,656.14699496224,-0.0041207095845998,0.043184367480935,573.09777840628
0.43921874999999,0.045088875753308,0,56.119113851852,0.37965825770898,9.0392093622868,1.0395822681874,656.24523326077,-0.0041243483883445,0.043214501589681,573.18463768623
0.43953124999999,0.045121661672874,0,56.118919654484,0.37966935214912,9.0390764355688,1.0396128467238,656.34340665455,-0.0041278914240475,0.043244634841508,573.27144038191
0.43984374999999,0.045154448594465,0,56.118725481971,0.37968044669844,9.0389435114424,1.0396434256178,656.44151511484,-0.0041314655190515,0.043274767236441,573.35818657109
0.44015624999999,0.04518723651808,0,56.118531334281,0.37969154135603,9.0388105899164,1.039674004869,656.53955868546,-0.0041350506564452,0.043304898774516,573.44487628022
0.44046874999999,0.04522002544372,0,56.118337211423,0.37970263612264,9.0386776710003,1.0397045844772,656.63753745211,-0.0041385924487569,0.04333502945576,573.53150953255
0.44078124999999,0.045252815371383,0,56.118143113365,0.37971373099739,9.117284912183,1.0397351644424,656.73545139706,-0.0041421705978207,0.043365159280215,573.61808638416
0.44109374999999,0.04528560630107,0,56.117949040104,0.37972482598076,9.1171519985132,1.0397657447641,656.83330059986,-0.0041457376801435,0.043395288247912,573.70460685952
0.44140624999999,0.045318398232775,0,56.11775499162,0.37973592107228,9.1170190874797,1.0397963254423,656.93108505347,-0.0041493513495837,0.043425416358884,573.79107100558
0.44171874999999,0.045351191166503,0,56.117560967917,0.37974701627213,9.1168861790918,1.0398269064767,657.02880488402,-0.0041528985555643,0.043455543613164,573.87747883404
0.44203124999999,0.045383985102249,0,56.117366968974,0.37975811157984,9.1167532733583,1.0398574878671,657.12646007066,-0.0041564703499189,0.043485670010785,573.96383040565
0.44234374999999,0.045416780040013,0,56.117172994784,0.3797692069958,9.1953605277686,1.0398880696132,657.22405066705,-0.0041600498876142,0.043515795551784,574.05012574864
0.44265624999999,0.045449575979794,0,56.195719202817,0.37978030251961,9.1952276273707,1.0399186517149,657.32157669363,-0.0041636601398432,0.043545920236187,574.13636490414
0.44296874999999,0.04548237292159,0,56.195525278088,0.37979139815092,9.2738348871339,1.0399492341719,657.41903827257,-0.0041671756513238,0.043576044064037,574.22254786798
0.44328124999999,0.045515170865402,0,56.195331378086,0.3798024938901,9.2737019921069,1.0399798169841,657.5164353381,-0.0041707804585727,0.043606167035358,574.30867474108
0.44359374999999,0.045547969811228,0,56.195137502795,0.37981358973674,9.2735690997786,1.0400104001512,657.61376797439,-0.0041743926412092,0.043636289150188,574.39474552962
0.44390624999999,0.045580769759065,0,56.1949436522,0.37982468569098,9.2734362101582,1.040040983673,657.7110362833,-0.0041779302583684,0.043666410408561,574.4807602482
0.44421874999999,0.045613570708912,0,56.194749826288,0.37983578175252,9.2733033232542,1.0400715675492,657.80824021431,-0.0041815256858316,0.04369653081051,574.56671896543
0.44453124999999,0.045646372660775,0,56.194556025052,0.37984687792128,9.2731704390753,1.0401021517797,657.90537984636,-0.004185116287611,0.043726650356068,574.6526217009
0.44484374999999,0.045679175614647,0,56.194362248475,0.37985797419722,9.2730375576303,1.0401327363643,658.00245524149,-0.0041886797383887,0.04375676904527,574.73846848375
0.44515624999999,0.045711979570524,0,56.194168496556,0.37986907058044,9.2729046789281,1.0401633213027,658.09946639701,-0.0041922848860821,0.043786886878146,574.82425937463
0.44546874999999,0.045744784528409,0,56.193974769286,0.37988016707024,9.2727718029778,1.0401939065947,658.19641343778,-0.0041958061224562,0.043817003854729,574.90999437242
0.44578124999999,0.045777590488305,0,56.193781066635,0.37989126366706,9.2726389297877,1.0402244922401,658.2932962811,-0.0041994199799057,0.043847119975058,574.99567355636
0.44609374999999,0.0458103974502,0,56.193587388611,0.37990236037049,9.2725060593667,1.0402550782387,658.3901150808,-0.0042029643692767,0.043877235239161,575.08129692201
0.44640624999999,0.045843205414102,0,56.193393735197,0.37991345718088,9.2723731917233,1.0402856645903,658.4868698016,-0.0042065553602494,0.043907349647075,575.16686453644
0.44671874999999,0.045876014380009,0,56.193200106377,0.37992455409762,9.2722403268663,1.0403162512946,658.58356053911,-0.0042101020240143,0.043937463198832,575.25237640733
0.44703124999999,0.045908824347917,0,56.193006502144,0.3799356511206,9.2721074648044,1.0403468383515,658.68018726471,-0.0042137231267393,0.043967575894466,575.33783260834
0.44734374999999,0.045941635317828,0,56.192812922496,0.37994674825033,9.2719746055463,1.0403774257607,658.7767500663,-0.0042173364311264,0.043997687734007,575.42323314691
0.44765624999999,0.045974447289736,0,56.192619367406,0.37995784548606,9.2718417491005,1.040408013522,658.8732490524,-0.004220842013501,0.044027798717494,575.50857803322
0.44796874999999,0.046007260263648,0,56.192425836869,0.3799689428279,9.2717088954754,1.0404386016353,658.96968411831,-0.0042244605506284,0.044057908844959,575.5938673625
0.44828124999999,0.046040074239555,0,56.192232330891,0.37998004027576,9.2715760446803,1.0404691901002,659.06605543444,-0.0042280129057178,0.044088018116431,575.67910112901
0.44859374999999,0.046072889217459,0,56.270779006914,0.37999113782964,9.2714431967231,1.0404997789166,659.16236294061,-0.0042316198174048,0.044118126531947,575.76427938522
0.44890624999999,0.04610570519736,0,56.270585549987,0.38000223548944,9.2713103516128,1.0405303680842,659.25860676063,-0.0042351847744575,0.044148234091542,575.84940215604
0.44921874999999,0.046138522179259,0,56.270392117575,0.38001333325487,9.271177509358,1.0405609576029,659.35478688146,-0.0042387799833909,0.044178340795245,575.93446949164
0.44953124999999,0.046171340163146,0,56.270198709661,0.38002443112586,9.2710446699669,1.0405915474725,659.45090337223,-0.0042423522938412,0.044208446643093,576.01948140583
0.44984374999999,0.046204159149032,0,56.270005326241,0.38003552910254,9.2709118334483,1.0406221376926,659.54695627191,-0.0042459219253427,0.044238551635118,576.10443795232
0.45015624999999,0.046236979136908,0,56.269811967292,0.38004662718458,9.2707789998104,1.0406527282632,659.64294559675,-0.004249508359198,0.044268655771356,576.18933915552
0.45046874999999,0.046269800126776,0,56.269618632822,0.38005772537171,9.2706461690623,1.0406833191839,659.73887142395,-0.0042530808722697,0.044298759051836,576.27418506386
0.45078124999999,0.046302622118633,0,56.269425322809,0.38006882366439,9.270513341212,1.0407139104547,659.83473376072,-0.0042566677697855,0.044328861476594,576.35897570182
0.45109374999999,0.046335445112481,0,56.269232037242,0.38007992206215,9.2703805162681,1.0407445020751,659.93053269537,-0.0042602014853101,0.044358963045665,576.44371109083
0.45140624999999,0.046368269108317,0,56.269038776129,0.38009102056484,9.2702476942392,1.0407750940452,660.02626819445,-0.0042638111116508,0.044389063759076,576.52839131363
0.45171874999999,0.04640109410614,0,56.268845539426,0.38010211917248,9.2701148751335,1.0408056863646,660.12194036202,-0.0042673745118916,0.044419163616869,576.6130163525
0.45203124999999,0.04643392010595,0,56.268652327139,0.38011321788511,9.2699820589593,1.0408362790331,660.21754919645,-0.0042709678794761,0.044449262619075,576.69758627021
0.45234374999999,0.046466747107744,0,56.26845913927,0.38012431670234,9.2698492457252,1.0408668720505,660.31309475767,-0.0042745674653534,0.04447936076572,576.78210110527
0.45265624999999,0.046499575111523,0,56.268265975797,0.38013541562416,9.2697164354398,1.0408974654166,660.40857708695,-0.0042781734422569,0.044509458056845,576.86656088656
0.45296874999999,0.046532404117284,0,56.268072836695,0.38014651465064,9.2695836281111,1.0409280591312,660.50399626577,-0.0042817092049111,0.044539554492488,576.95096562232
0.45328124999999,0.04656523412503,0,56.267879721978,0.38015761378146,9.2694508237477,1.0409586531941,660.59935224896,-0.0042853183412853,0.044569650072671,577.03531539895
0.45359374999999,0.046598065134755,0,56.267686631624,0.3801687130167,9.2693180223579,1.0409892476051,660.694645177,-0.004288843974849,0.044599744797432,577.11961019652
0.45390624999999,0.046630897146462,0,56.267493565629,0.3801798123561,9.26918522395,1.0410198423639,660.78987498243,-0.0042924566734992,0.044629838666805,577.20385010781
0.45421874999999,0.046663730160146,0,56.267300523968,0.38019091179958,9.2690524285324,1.0410504374703,660.88504175315,-0.004296075680169,0.044659931680827,577.28803513671
0.45453124999999,0.046696564175813,0,56.267107506652,0.38020201134727,9.2689196361135,1.0410810329242,660.98014557645,-0.0042996339062084,0.044690023839524,577.37216530418
0.45484374999999,0.046729399193454,0,56.266914513648,0.3802131109987,9.2687868467012,1.0411116287253,661.07518642943,-0.0043032229848187,0.044720115142937,577.45624067025
0.45515624999999,0.046762235213072,0,56.266721544959,0.38022421075415,9.3473942177843,1.0411422248734,661.17016440019,-0.0043067774069171,0.044750205591094,577.54026125059
0.45546874999999,0.046795072234667,0,56.26652860057,0.38023531061323,9.3472614344105,1.0411728213683,661.26507948013,-0.0043103699999728,0.044780295184032,577.62422710257
0.45578124999999,0.046827910258236,0,56.266335680477,0.38024641057591,9.3471286540683,1.0412034182097,661.35993173355,-0.0043139651394094,0.044810383921781,577.70813825276
0.45609374999999,0.046860749283778,0,56.266142784672,0.38025751064227,9.346995876766,1.0412340153975,661.45472125489,-0.0043174799105157,0.044840471804375,577.79199470981
0.45640624999999,0.046893589311291,0,56.265949913122,0.38026861081188,9.3468631025113,1.0412646129315,661.54944791609,-0.0043211575898668,0.044870558831851,577.87579657077
0.45671874999999,0.046926430340779,0,56.265757065841,0.38027971108504,9.3467303313132,1.0412952108114,661.64411198895,-0.0043246754968282,0.04490064500424,577.9595437974
0.45703124999999,0.046959272372238,0,56.265564242808,0.38029081146142,9.3465975631794,1.0413258090371,661.73871331133,-0.0043283133100863,0.044930730321577,578.04323648458
0.45734374999999,0.046992115405665,0,56.265371444023,0.38030191194096,9.3464647981183,1.0413564076083,661.83325208097,-0.0043318497357653,0.04496081478389,578.12687461733
0.45765624999999,0.047024959441063,0,56.265178669456,0.38031301252362,9.3463320361379,1.0413870065248,661.92772820466,-0.0043354750935464,0.044990898391221,578.21045827716
0.45796874999999,0.047057804478424,0,56.264985919114,0.38032411320912,9.3461992772465,1.0414176057863,662.02214183009,-0.0043390360852974,0.045020981143596,578.29398745982
0.45828124999999,0.047090650517755,0,56.264793192979,0.38033521399739,9.3460665214521,1.0414482053928,662.11649295303,-0.0043425906622807,0.045051063041051,578.37746221558
0.45859374999999,0.047123497559054,0,56.343340648518,0.3803463148885,9.3459337687627,1.041478805344,662.21078156915,-0.0043462171412608,0.045081144083624,578.46088259795
0.45890624999999,0.047156345602315,0,56.421888128255,0.38035741588253,9.3458010191866,1.0415094056396,662.30500779443,-0.0043497922886233,0.045111224271341,578.5442486119
0.45921874999999,0.047189194647542,0,56.421695474689,0.38036851697888,9.3456682727318,1.0415400062795,662.39917162756,-0.0043533767416575,0.045141303604239,578.6275603059
0.45953124999999,0.047222044694731,0,56.421502845285,0.3803796181778,9.3455355294062,1.0415706072634,662.49327314343,-0.0043569257299519,0.045171382082353,578.71081770208
0.45984374999999,0.047254895743884,0,56.342570082559,0.380390719479,9.345402789218,1.0416012085911,662.58731230775,-0.0043605508428378,0.045201459705715,578.7940208669
0.46015624999999,0.047287747794997,0,56.421117658949,0.38040182088248,9.3452700521754,1.0416318102625,662.68128925747,-0.0043641070417418,0.045231536474354,578.87716980251
0.46046874999999,0.047320600848072,0,56.420925101996,0.38041292238815,9.3451373182865,1.0416624122773,662.77520397774,-0.0043676724048597,0.04526161238831,578.96026455581
0.46078124999999,0.047353454903102,0,56.420732569163,0.38042402399606,9.3450045875589,1.0416930146353,662.86905649181,-0.0043712703715523,0.045291687447616,579.04330516771
0.46109374999999,0.047386309960095,0,56.420540060455,0.38043512570572,9.3448718600009,1.0417236173363,662.96284687872,-0.0043748489476757,0.045321761652301,579.12629166264
0.46140624999999,0.047419166019046,0,56.499087733326,0.3804462275175,9.3447391356204,1.04175422038,663.05657513222,-0.0043784733005288,0.045351835002404,579.20922409139
0.46171874999999,0.047452023079952,0,56.498895272816,0.38045732943086,9.3446064144252,1.0417848237664,663.15024135454,-0.004382043178093,0.045381907497954,579.29210245662
0.46203124999999,0.047484881142814,0,56.498702836386,0.38046843144604,9.3444736964232,1.0418154274951,663.24384554463,-0.0043856305454579,0.045411979138988,579.37492681972
0.46234374999999,0.04751774020763,0,56.498510424047,0.38047953356292,9.3443409816226,1.0418460315659,663.33738777918,-0.0043891791295485,0.045442049925534,579.45769719828
0.46265624999999,0.047550600274399,0,56.498318035776,0.38049063578118,9.3442082700315,1.0418766359787,663.43086805637,-0.0043927571961839,0.045472119857628,579.54041364845
0.46296874999999,0.047583461343002,0,56.498125665271,0.38050173810184,9.3440755616622,1.0419072407338,663.5242843092,-0.0043991518554116,0.045502188936718,579.62307672564
0.46328124999999,0.047616323413655,0,56.497933324683,0.38051284052352,9.3439428565175,1.0419378458304,663.61764073126,-0.0044027329713125,0.045532257160095,579.70568532585
0.46359374999999,0.04764918648638,0,56.4977410144,0.3805239430458,9.3438101546011,1.0419684512677,663.71093742164,-0.0044035371873523,0.045562324527713,579.78823956429
0.46390624999999,0.047682050560961,0,56.49754872229,0.38053504566912,9.3436774559259,1.0419990570462,663.80417034638,-0.0044070899565597,0.045592391042339,579.87074059521
0.46421874999999,0.047714915637484,0,56.497356454215,0.3805461483935,9.3435447604995,1.0420296631655,663.89734148291,-0.0044107189216016,0.045622456702676,579.95318788489
0.46453124999999,0.047747781715962,0,56.497164210127,0.38055725121867,9.3434120683295,1.0420602696255,663.99045093527,-0.0044143065381299,0.045652521508771,580.03558142076
0.46484374999999,0.047780648796383,0,56.496971990048,0.38056835414488,9.3432793794238,1.042090876426,664.08349872762,-0.004417890640697,0.045682585460644,580.11792125907
0.46515624999999,0.047813516878753,0,56.496779793951,0.38057945717181,9.3431466937903,1.0421214835667,664.17648490458,-0.0044214574041531,0.045712648558334,580.20020742699
0.46546874999999,0.047846385963069,0,56.49658762183,0.38059056029939,9.3430140114366,1.0421520910476,664.26940948719,-0.0044250391215252,0.045742710801876,580.28243996561
0.46578124999999,0.047879256049327,0,56.496395473679,0.38060166352756,9.3428813323709,1.0421826988683,664.36227252064,-0.0044286284744894,0.045772772191298,580.36461891326
0.46609374999999,0.047912127137533,0,56.496203349474,0.38061276685605,9.3427486566004,1.0422133070286,664.45507401433,-0.0044322609194352,0.045802832726645,580.44674430877
0.46640624999999,0.047944999227679,0,56.496011249232,0.38062387028517,9.3426159841334,1.0422439155284,664.54781409626,-0.004435821261329,0.045832892407936,580.52881616023
0.46671874999999,0.04797787231977,0,56.495819172915,0.38063497381435,9.3424833149771,1.0422745243674,664.64049274811,-0.0044393727642081,0.045862951235215,580.61083450748
0.46703124999999,0.048010746413796,0,56.495627120536,0.38064607744377,9.3423506491397,1.0423051335454,664.73311000976,-0.0044429423974439,0.045893009208506,580.69279940772
0.46734374999999,0.04804362150977,0,56.49543509207,0.38065718117331,9.3422179866291,1.0423357430622,664.82566586696,-0.0044466002455044,0.045923066327851,580.7747109118
0.46765624999999,0.04807649760768,0,56.495243087508,0.38066828500283,9.3420853274524,1.0423663529177,664.91816049417,-0.0044501239490672,0.045953122593281,580.85656897513
0.46796874999999,0.048109374707528,0,56.495051106845,0.38067938893233,9.3419526716176,1.0423969631115,665.01059381677,-0.0044537096967581,0.045983178004829,580.93837370394
0.46828124999999,0.048142252809317,0,56.494859150066,0.38069049296155,9.3418200191322,1.0424275736435,665.1029658924,-0.0044573223744342,0.046013232562531,581.02012511982
0.46859374999999,0.048175131913039,0,56.494667217167,0.38070159709061,9.3416873700037,1.0424581845135,665.19527678671,-0.0044609166914069,0.046043286266417,581.10182323709
0.46890624999999,0.048208012018701,0,56.494475308142,0.38071270131902,9.3415547242403,1.0424887957213,665.28752655665,-0.0044644768301058,0.046073339116519,581.18346809404
0.46921874999999,0.048240893126294,0,56.494283422976,0.38072380564714,9.3414220818495,1.0425194072666,665.37971516883,-0.0044681086529463,0.046103391112873,581.26505975082
0.46953124999999,0.048273775235824,0,56.494091561646,0.3807349100747,9.3412894428384,1.0425500191493,665.4718427536,-0.0044716595512265,0.046133442255515,581.34659819176
0.46984374999999,0.048306658347285,0,56.493899724169,0.3807460146016,9.4986371221758,1.0425806313692,665.56390928035,-0.0044752661463805,0.046163492544473,581.42808350657
0.47015624999999,0.048339542460684,0,56.493707910515,0.38075711922763,9.498504489948,1.042611243926,665.65591482314,-0.004478851964573,0.046193541979786,581.50951569268
0.47046874999999,0.048372427576007,0,56.493516120682,0.38076822395297,9.4983718611229,1.0426418568195,665.74785941864,-0.0044824258095212,0.046223590561483,581.59089479036
0.47078124999999,0.048405313693265,0,56.493324354663,0.38077932877731,9.4982392357082,1.0426724700496,665.83974308251,-0.0044860253717222,0.0462536382896,581.6722208451
0.47109374999999,0.048438200812453,0,56.493132612438,0.38079043370066,9.4981066137116,1.042703083616,665.93156588671,-0.0044896053219569,0.04628368516417,581.75349388168
0.47140624999999,0.048471088933567,0,56.492940894006,0.38080153872281,9.4979739951406,1.0427336975185,666.02332783236,-0.0044932152366256,0.046313731185227,581.83471394189
0.47171874999999,0.04850397805661,0,56.492749199354,0.38081264384368,9.4978413800026,1.0427643117569,666.11502899995,-0.0044967962236219,0.046343776352801,581.91588104558
0.47203124999999,0.048536868181583,0,56.492557528476,0.38082374906348,9.4977087683052,1.042794926331,666.20666940951,-0.0045003769527135,0.04637382066693,581.99699523263
0.47234374999999,0.048569759308481,0,56.492365881357,0.38083485438167,9.497576160056,1.0428255412405,666.29824910486,-0.0045039562809463,0.046403864127647,582.07805654211
0.47265624999999,0.048602651437307,0,56.49217425799,0.38084595979849,9.5761837127427,1.0428561564854,666.38976809428,-0.0045075653278816,0.046433906734983,582.15906500793
0.47296874999999,0.048635544568054,0,56.491982658363,0.3808570653136,9.576051111412,1.0428867720654,666.48122648293,-0.0045111179644113,0.046463948488974,582.24002064986
0.47328124999999,0.048668438700725,0,56.491791082473,0.38086817092721,9.5759185135518,1.0429173879802,666.57262425602,-0.0045146908317654,0.046493989389649,582.32092351882
0.47359374999999,0.04870133383532,0,56.491599530306,0.38087927663886,9.5757859191697,1.0429480042297,666.66396144128,-0.0045183085718096,0.046524029437047,582.40177365463
0.47390624999999,0.048734229971836,0,56.491408001851,0.38089038244876,9.575653328273,1.0429786208137,666.75523813127,-0.0045218757804476,0.046554068631199,582.48257106215
0.47421874999999,0.048767127110274,0,56.491216497099,0.38090148835668,9.575520740869,1.0430092377319,666.84645429875,-0.0045255037875133,0.046584106972139,582.5633158098
0.47453124999999,0.048800025250634,0,56.491025016035,0.38091259436251,9.575388156965,1.0430398549842,666.93761004472,-0.0045290888165017,0.046614144459903,582.64400789954
0.47484374999999,0.048832924392914,0,56.490833558671,0.38092370046617,9.5752555765689,1.0430704725703,667.02870539276,-0.0045326657361686,0.046644181094517,582.72464737893
0.47515624999999,0.048865824537112,0,56.490642124976,0.38093480666769,9.575122999688,1.04310109049,667.11974035818,-0.0045362700533383,0.04667421687602,582.80523429275
0.47546874999999,0.048898725683225,0,56.490450714949,0.38094591296693,9.5749904263295,1.0431317087432,667.21071499844,-0.0045398650180041,0.046704251804444,582.88576865883
0.47578124999999,0.048931627831258,0,56.490259328569,0.3809570193636,9.5748578565005,1.0431623273296,667.30162936276,-0.0045434285190237,0.046734285879826,582.96625050034
0.47609374999999,0.048964530981207,0,56.490067965849,0.38096812585794,9.574725290209,1.0431929462491,667.39248347242,-0.0045470119277362,0.046764319102193,583.04667988
0.47640624999999,0.048997435133072,0,56.489876626757,0.38097923244969,9.5745927274617,1.0432235655013,667.48327733128,-0.0045506414154028,0.046794351471585,583.12705682501
0.47671874999999,0.04903034028685,0,56.489685311294,0.38099033913865,9.5744601682661,1.0432541850862,667.57401103271,-0.0045542499516645,0.046824382988034,583.20738135704
0.47703124999999,0.049063246442542,0,56.48949401945,0.38100144592477,9.5743276126295,1.0432848050034,667.66468465276,-0.0045577741231338,0.046854413651571,583.28765348894
0.47734374999999,0.049096153600147,0,56.489302751215,0.38101255280823,9.5741950605594,1.0433154252529,667.75529811435,-0.0045613994272845,0.04688444346223,583.36787331069
0.47765624999999,0.049129061759663,0,56.489111506587,0.38102365978858,9.5740625120631,1.0433460458344,667.84585155793,-0.0045649660733198,0.046914472420041,583.44804080873
0.47796874999999,0.049161970921093,0,56.48892028554,0.38103476686593,9.5739299671475,1.0433766667476,667.93634496875,-0.0045685439665346,0.046944500525047,583.52815603094
0.47828124999999,0.049194881084432,0,56.488729088076,0.38104587404002,9.5737974258202,1.0434072879924,668.02677837056,-0.0045721712146597,0.046974527777275,583.60821902812
0.47859374999999,0.04922779224968,0,56.488537914195,0.38105698131112,9.5736648880886,1.0434379095686,668.11715186806,-0.004575750180741,0.047004554176756,583.68822980954
0.47890624999999,0.049260704416839,0,56.488346763863,0.38106808867874,9.5735323539595,1.043468531476,668.20746545123,-0.0045793335204445,0.047034579723531,583.76818841066
0.47921874999999,0.049293617585903,0,56.488155637084,0.38107919614306,9.5733998234402,1.0434991537144,668.29771917096,-0.0045829153685197,0.047064604417629,583.84809486961
0.47953124999999,0.049326531756877,0,56.487964533855,0.38109030370365,9.5732672965381,1.0435297762835,668.38791306964,-0.0045864971420767,0.047094628259083,583.92794922677
0.47984374999999,0.049359446929755,0,56.487773454153,0.38110141136088,9.5731347732601,1.0435603991832,668.47804717822,-0.0045900752071433,0.047124651247929,584.00775150381
0.48015624999999,0.04939236310454,0,56.487582397979,0.3811125191144,9.5730022536138,1.0435910224133,668.56812148806,-0.0045937389758172,0.047154673384199,584.08750177174
0.48046874999999,0.049425280281228,0,56.487391365327,0.38112362696401,9.5728697376061,1.0436216459735,668.65813615705,-0.0045972920390607,0.047184694667922,584.16719999675
0.48078124999999,0.049458198459821,0,56.487200356174,0.38113473491,9.5727372252441,1.0436522698636,668.74809113148,-0.0046008740148146,0.047214715099142,584.24684625102
0.48109374999999,0.049491117640318,0,56.487009370521,0.38114584295194,9.5726047165352,1.0436828940835,668.83798646483,-0.0046044781529626,0.047244734677884,584.32644057925
0.48140624999999,0.049524037822715,0,56.48681840835,0.38115695108978,9.5724722114864,1.043713518633,668.92782219769,-0.0046080850539089,0.047274753404186,584.40598299795
0.48171874999999,0.049556959007016,0,56.486627469661,0.38116805932352,9.5723397101047,1.0437441435118,669.01759841141,-0.0046116309431207,0.047304771278078,584.4854735217
0.48203124999999,0.049589881193216,0,56.486436554444,0.38117916765293,9.5722072123974,1.0437747687197,669.10731506241,-0.0046152546003804,0.047334788299596,584.56491223272
0.48234374999999,0.049622804381314,0,56.564985820171,0.38119027607821,9.5720747183718,1.0438053942565,669.19697227987,-0.0046188069568757,0.047364804468768,584.64429911484
0.48265624999999,0.049655728571315,0,56.564794951862,0.38120138459913,9.5719422280346,1.0438360201221,669.28657001037,-0.0046224192145872,0.047394819785637,584.72363423619
0.48296874999999,0.049688653763213,0,56.564604106997,0.38121249321541,9.571809741393,1.0438666463162,669.37610833952,-0.0046260364735693,0.047424834250228,584.80291761773
0.48328124999999,0.049721579957008,0,56.564413285561,0.38122360192719,9.5716772584541,1.0438972728387,669.46558732372,-0.0046296200424247,0.047454847862582,584.88214928247
0.48359374999999,0.049754507152699,0,56.564222487549,0.38123471073438,9.5715447792251,1.0439278996892,669.55500698775,-0.0046331990836492,0.047484860622728,584.96132927556
0.48390624999999,0.049787435350286,0,56.564031712951,0.38124581963667,9.5714123037127,1.0439585268677,669.64436732678,-0.004636825563531,0.047514872530699,585.04045763221
0.48421874999999,0.049820364549771,0,56.563840961752,0.38125692863426,9.5712798319238,1.0439891543739,669.73366845219,-0.0046403879629212,0.047544883586532,585.11953435795
0.48453124999999,0.049853294751038,0,56.563650228196,0.38126803772757,9.5711473638702,1.0440197822081,669.82290843214,-0.0046465377671215,0.04757489379161,585.19856000959
0.48484374999999,0.049886225954395,0,56.563459529161,0.38127914691509,9.5710148995495,1.044050410369,669.9120929873,-0.0046475982083817,0.047604903141985,585.2775330895
0.48515624999999,0.049919158159562,0,56.563268848132,0.38129025619765,9.5708824389741,1.0440810388571,670.00121659189,-0.0046511765414401,0.047634911641595,585.35645519979
0.48546874999999,0.049952091366616,0,56.563078190473,0.381301365575,9.5707499821506,1.0441116676721,670.09028109342,-0.0046547671109909,0.047664919289198,585.43532584231
0.48578124999999,0.049985025575562,0,56.562887556174,0.38131247504686,9.5706175290858,1.0441422968138,670.17928653237,-0.0046583542224585,0.047694926084827,585.51414503355
0.48609374999999,0.0500179607864,0,56.562696945222,0.38132358461342,9.5704850797867,1.0441729262819,670.26823295001,-0.0046619461568358,0.047724932028519,585.59291281933
0.48640624999999,0.050050896999126,0,56.562506357609,0.38133469427464,9.5703526342601,1.0442035560764,670.3571203813,-0.004665538666287,0.047754937120306,585.67162922343
0.48671874999999,0.050083834213741,0,56.562315793332,0.38134580403033,9.570220192513,1.044234186197,670.44594888632,-0.0046690973457917,0.047784941360216,585.75029427151
0.48703124999999,0.050116772430244,0,56.562125252374,0.38135691388024,9.5700877545525,1.0442648166434,670.53471846377,-0.0046726956765983,0.047814944748293,585.828908025
0.48734374999999,0.050149711648636,0,56.561934734727,0.38136802382461,9.5699553203851,1.0442954474156,670.62342913898,-0.0046763314869143,0.047844947284563,585.90747050079
0.48765624999999,0.050182651868913,0,56.561744240393,0.381379133863,9.5698228900179,1.0443260785132,670.71208102743,-0.0046799067554159,0.047874948969059,585.98598171751
0.48796874999999,0.050215593091078,0,56.561553769347,0.38139024399568,9.569690463458,1.0443567099362,670.80067408864,-0.0046835284445948,0.047904949801819,586.06444173331
0.48828124999999,0.050248535315124,0,56.640103479074,0.38140135422229,9.569558040712,1.0443873416842,670.88920840773,-0.0046871270736657,0.047934949782871,586.14285055901
0.48859374999999,0.050281478541055,0,56.639913054596,0.38141246454283,9.5694256217869,1.0444179737571,670.97768401926,-0.0046907140622702,0.047964948912253,586.22120823629
0.48890624999999,0.050314422768872,0,56.718462810872,0.38142357495725,9.5692932066896,1.0444486061547,671.06610095992,-0.0046942910667133,0.047994947189999,586.29951479715
0.48921874999999,0.050347367998569,0,56.718272432919,0.38143468546546,9.5691607954269,1.0444792388767,671.15445923482,-0.0046978973661308,0.048024944616141,586.37777028035
0.48953124999999,0.050380314230148,0,56.796822235706,0.38144579606723,9.5690283880057,1.0445098719231,671.2427589344,-0.0047014604328505,0.04805494119071,586.45597470233
0.48984374999999,0.050413261463611,0,56.717891746767,0.38145690676275,9.5688959844325,1.0445405052935,671.3310000326,-0.004705073176014,0.048084936913744,586.53412812113
0.49015624999999,0.050446209698951,0,56.717701438546,0.38146801755159,9.5687635847144,1.0445711389878,671.4191826056,-0.0047086846092201,0.048114931785273,586.61223055616
0.49046874999999,0.050479158936174,0,56.717511153542,0.38147912843398,9.5686311888581,1.0446017730058,671.50730670783,-0.0047122588431273,0.048144925805333,586.6902820265
0.49078124999999,0.050512109175275,0,56.71732089176,0.38149023940972,9.5684987968704,1.0446324073472,671.5953723464,-0.0047158528114349,0.048174918973955,586.76828258429
0.49109374999999,0.050545060416251,0,56.6383904957,0.38150135047852,9.5683664087578,1.044663042012,671.68337953435,-0.0047194936370459,0.048204911291175,586.8462322668
0.49140624999999,0.050578012659109,0,56.638200280319,0.38151246164066,9.5682340245275,1.0446936769998,671.77132841147,-0.0047230364833308,0.048234902757025,586.92413107179
0.49171874999999,0.05061096590384,0,56.638010088131,0.38152357289566,9.5681016441861,1.0447243123105,671.85921890819,-0.004726641606596,0.048264893371537,587.00197907168
0.49203124999999,0.05064392015045,0,56.637819919113,0.3815346842438,9.5679692677399,1.0447549479438,671.94705110119,-0.0047302404024828,0.048294883134752,587.07977627763
0.49234374999999,0.05067687539893,0,56.637629773279,0.38154579568474,9.5678368951965,1.0447855838996,672.03482502671,-0.0047338537002166,0.048324872046691,587.15752273668
0.49265624999999,0.050709831649289,0,56.637439650591,0.38155690721864,9.5677045265617,1.0448162201777,672.12254072809,-0.0047374488988002,0.048354860107401,587.23521846255
0.49296874999999,0.050742788901521,0,56.637249551065,0.38156801884515,9.5675721618427,1.0448468567779,672.21019823422,-0.0047410567821644,0.048384847316905,587.31286350152
0.49328124999999,0.050775747155625,0,56.637059474684,0.38157913056428,9.567439801046,1.0448774937,672.29779758805,-0.0047446622116942,0.04841483367524,587.39045788183
0.49359374999999,0.0508087064116,0,56.636869421438,0.38159024237604,9.5673074441785,1.0449081309437,672.38533883781,-0.0047482501973565,0.048444819182441,587.46800163047
0.49390624999999,0.050841666669447,0,56.636679391316,0.38160135428015,9.5671750912464,1.0449387685089,672.47282201442,-0.004751827604056,0.048474803838542,587.54549478137
0.49421874999999,0.050874627929169,0,56.636489384311,0.38161246627679,9.5670427422567,1.0449694063953,672.56024714902,-0.004755410124471,0.048504787643575,587.62293737224
0.49453124999999,0.050907590190755,0,56.636299400419,0.3816235783655,9.5669103972161,1.0450000446029,672.64761428243,-0.0047589928803602,0.048534770597572,587.70032943621
0.49484374999999,0.050940553454211,0,56.636109439629,0.38163469054672,9.6455182136116,1.0450306831313,672.73492344846,-0.0047625814555978,0.048564752700567,587.77767100755
0.49515624999999,0.050973517719539,0,56.635919501923,0.38164580281976,9.6453858764889,1.0450613219804,672.82217463708,-0.0047662377328022,0.0485947339526,587.85496213154
0.49546874999999,0.051006482986732,0,56.635729587309,0.38165691518511,9.6452535433351,1.0450919611499,672.90936799078,-0.0047698078777112,0.048624714353692,587.93220279606
0.49578124999999,0.051039449255793,0,56.635539695758,0.38166802764231,9.6451212141567,1.0451226006398,672.99650348678,-0.0047733842170371,0.048654693903889,588.0093930649
0.49609374999999,0.05107241652672,0,56.635349827279,0.38167914019128,9.6449888889604,1.0451532404497,673.08358113041,-0.0047770208778384,0.048684672603218,588.08653298586
0.49640624999999,0.051105384799513,0,56.713900139339,0.38169025283204,9.6448565677526,1.0451838805795,673.17060104561,-0.0047805764748538,0.048714650451712,588.16362254712
0.49671874999999,0.051138354074169,0,56.71371031697,0.38170136556475,9.6447242505402,1.0452145210289,673.25756319166,-0.0047841766302132,0.048744627449405,588.24066181926
0.49703124999999,0.051171324350692,0,56.71352051763,0.38171247838882,9.6445919373295,1.0452451617979,673.3444676066,-0.0047878131334986,0.048774603596337,588.31765082952
0.49734374999999,0.051204295629075,0,56.713330741329,0.38172359130445,9.6444596281272,1.0452758028861,673.43131440775,-0.0047913746305468,0.048804578892533,588.39458958582
0.49765624999999,0.051237267909323,0,56.791881145528,0.38173470431166,9.6443273229397,1.0453064442934,673.51810352931,-0.0047950077718474,0.048834553338029,588.47147815027
0.49796874999999,0.051270241191433,0,56.791691415252,0.38174581741015,9.6441950217733,1.0453370860196,673.60483509368,-0.00479857839387,0.048864526932862,588.54831651993
0.49828124999999,0.051303215475403,0,56.791501707996,0.38175693059981,9.6440627246351,1.0453677280645,673.6915091038,-0.0048021609446688,0.048894499677059,588.62510476099
0.49859374999999,0.051336190761234,0,56.791312023724,0.3817680438808,9.643930431531,1.0453983704279,673.77812556195,-0.0048057800673231,0.048924471570661,588.70184289469
0.49890624999999,0.051369167048925,0,56.79112236244,0.38177915725279,9.6437981424678,1.0454290131095,673.86468456663,-0.004809365986895,0.048954442613699,588.77853094648
0.49921874999999,0.051402144338476,0,56.869672881626,0.38179027071588,9.643665857452,1.0454596561093,673.95118612,-0.0048129599783165,0.0489844128062,588.85516895397
0.49953124999999,0.051435122629883,0,56.869483266292,0.38180138426998,9.64353357649,1.0454902994269,674.03763025862,-0.0048165639250593,0.049014382148206,588.93175695048
0.49984374999999,0.051468101923148,0,56.869293673923,0.38181249791496,9.6434012995883,1.0455209430623,674.12401703199,-0.0048201645227467,0.049044350639747,589.00829496938
0.50015624999999,0.051501082218272,0,56.869104104506,0.38182361165053,9.6432690267533,1.0455515870151,674.21034645868,-0.004823780922054,0.049074318280858,589.08478303791
0.50046874999999,0.051534063515251,0,56.868914558035,0.38183472547689,9.7218769154716,1.0455822312852,674.29661861778,-0.0048273504913819,0.049104285071571,589.16122117835
0.50078124999999,0.051567045814087,0,56.868725034496,0.38184583939389,9.7217446507892,1.0456128758725,674.38283349713,-0.0048309549151416,0.049134251011922,589.23760944323
0.50109374999999,0.051600029114776,0,56.868535533886,0.38185695340132,9.7216123901926,1.0456435207766,674.46899114027,-0.0048345765035068,0.049164216101941,589.3139478594
0.50140624999999,0.051633013417321,0,56.868346056193,0.38186806749923,9.7214801336883,1.0456741659975,674.55509162949,-0.0048381465919288,0.049194180341664,589.39023643726
0.50171874999999,0.051665998721717,0,56.868156601415,0.38187918168751,9.7213478812826,1.0457048115348,674.64113496692,-0.0048417268082301,0.049224143731123,589.46647523206
0.50203124999999,0.051698985027967,0,56.867967169538,0.38189029596609,9.7212156329822,1.0457354573885,674.72712115088,-0.0048453698831471,0.049254106270351,589.54266428774
0.50234374999999,0.051731972336068,0,56.867777760557,0.38190141033465,9.7210833887936,1.0457661035583,674.81305029485,-0.0048489660922912,0.049284067959382,589.61880360728
0.50265624999999,0.051764960646023,0,56.867588374454,0.38191252479352,9.7209511487225,1.045796750044,674.89892242732,-0.0048525075178501,0.049314028798254,589.69489321156
0.50296874999999,0.051797949957824,0,56.867399011235,0.38192363934241,9.7208189127758,1.0458273968454,674.98473751037,-0.0048561358977174,0.049343988786993,589.77093318793
0.50328124999999,0.05183094027148,0,56.86720967088,0.38193475398124,9.7206866809597,1.0458580439623,675.07049562347,-0.00485976386373,0.049373947925639,589.84692352622
0.50359374999999,0.051863931586983,0,56.867020353382,0.38194586870976,9.7205544532804,1.0458886913946,675.15619682377,-0.0048633692226262,0.049403906214222,589.92286426182
0.50390624999999,0.051896923904336,0,56.866831058742,0.38195698352816,9.7204222297444,1.045919339142,675.2418411424,-0.0048669616514406,0.049433863652777,589.99875542862
0.50421874999999,0.051929917223535,0,56.945381944415,0.38196809843641,9.7202900103576,1.0459499872043,675.32742860356,-0.0048705482929632,0.049463820241337,590.07459705476
0.50453124999999,0.051962911544579,0,56.945192695451,0.38197921343416,9.7201577951268,1.0459806355814,675.41295926745,-0.004874117944206,0.049493775979933,590.15038918062
0.50484374999999,0.051995906867473,0,56.945003469307,0.38199032852137,9.720025584058,1.046011284273,675.49843310491,-0.0048777512653793,0.049523730868604,590.22613185084
0.50515624999999,0.052028903192213,0,56.944814265979,0.382001443698,9.7198933771574,1.046041933279,675.58385021884,-0.0048813482497591,0.049553684907381,590.30182506981
0.50546874999999,0.052061900518796,0,56.944625085465,0.38201255896401,9.7197611744315,1.0460725825991,675.66921062916,-0.0048849434752307,0.049583638096295,590.37746888454
0.50578124999999,0.052094898847226,0,56.944435927748,0.38202367431939,9.7196289758865,1.0461032322332,675.75451435436,-0.0048885575675698,0.049613590435382,590.45306332689
0.50609374999999,0.0521278981775,0,56.944246792822,0.38203478976398,9.7194967815285,1.046133882181,675.83976144246,-0.0048921741645777,0.049643541924677,590.52860842652
0.50640624999999,0.052160898509614,0,56.944057680685,0.38204590529755,9.7193645913639,1.0461645324424,675.92495196317,-0.0048957475193571,0.049673492564208,590.60410420143
0.50671874999999,0.052193899843576,0,56.943868591324,0.38205702092037,9.7192324053989,1.0461951830171,676.01008590949,-0.0048993347540226,0.049703442354016,590.6795506946
0.50703124999999,0.052226902179374,0,56.943679524726,0.3820681366319,9.7191002236396,1.046225833905,676.09516333345,-0.0049029200244583,0.049733391294128,590.75494794534
0.50734374999999,0.052259905517014,0,57.022230638373,0.38207925243226,9.7189680460925,1.0462564851059,676.18018424632,-0.0049065466396913,0.049763339384579,590.83029599151
0.50765624999999,0.052292909856497,0,57.022041617277,0.38209036832153,9.7188358727633,1.0462871366196,676.26514871575,-0.0049101428877604,0.04979328662541,590.90559483294
0.50796874999999,0.052325915197818,0,57.100592776414,0.38210148429964,9.7187037036584,1.0463177884458,676.35005677347,-0.0049137419725693,0.049823233016645,590.98084452858
0.50828124999999,0.052358921540977,0,57.100403800806,0.38211260036618,9.7185715387842,1.0463484405845,676.43490845627,-0.0049173401786611,0.049853178558319,591.05604510335
0.50859374999999,0.052391928885976,0,57.100214847918,0.38212371652137,9.7184393781464,1.0463790930353,676.5197037719,-0.0049209597610941,0.049883123250469,591.13119658246
0.50890624999999,0.052424937232812,0,57.100025917751,0.38213483276483,9.7183072217518,1.0464097457982,676.60444279912,-0.0049245658707364,0.049913067093127,591.20629900632
0.50921874999999,0.052457946581487,0,57.099837010296,0.38214594909706,9.7181750696062,1.0464403988728,676.68912556415,-0.0049281548371648,0.049943010086326,591.28135239663
0.50953124999999,0.052490956931999,0,57.099648125531,0.3821570655173,9.7180429217156,1.046471052259,676.77375209129,-0.0049317445921555,0.049972952230102,591.35635678685
0.50984374999999,0.052523968284343,0,57.099459263469,0.38216818202583,9.7179107780863,1.0465017059567,676.85832240784,-0.0049353622329457,0.050002893524486,591.43131222442
0.51015624999999,0.052556980638526,0,57.099270424084,0.3821792986225,9.7177786387241,1.0465323599656,676.94283655667,-0.00493897631116,0.050032833969512,591.50621871604
0.51046874999999,0.05258999399454,0,57.099081607374,0.38219041530719,9.7963866611156,1.0465630142855,677.02729461695,-0.0049425409648804,0.050062773565216,591.58107629622
0.51078124999999,0.052623008352389,0,57.177632970826,0.38220153207985,9.7962545303068,1.0465936689162,677.11169656615,-0.0049461507416948,0.050092712311622,591.65588502869
0.51109374999999,0.052656023712074,0,57.177444199446,0.38221264894042,9.7961224037834,1.0466243238576,677.19604246781,-0.004949738395408,0.050122650208777,591.73064490292
0.51140624999999,0.052689040073587,0,57.177255450718,0.38222376588873,9.874730439032,1.0466549791094,677.28033234667,-0.0049533407065236,0.050152587256706,591.80535597593
0.51171874999999,0.052722057436934,0,57.255806882113,0.38223488292488,9.874598321098,1.0466856346714,677.3645662253,-0.0049569647856981,0.050182523455446,591.88001827361
0.51203124999999,0.052755075802113,0,57.255618178668,0.38224600004867,9.8744662074679,1.0467162905435,677.44874416456,-0.0049605938273578,0.050212458805027,591.95463183333
0.51234374999999,0.052788095169123,0,57.255429497841,0.38225711726002,9.8743340981474,1.0467469467255,677.53286621285,-0.0049641768026019,0.050242393305489,592.02919665465
0.51265624999999,0.052821115537959,0,57.255240839637,0.38226823455884,9.8742019931428,1.0467776032171,677.61693241031,-0.0049677436675997,0.050272326956859,592.10371279817
0.51296874999999,0.052854136908628,0,57.255052204041,0.38227935194509,9.8740698924599,1.0468082600182,677.70094272132,-0.0049713750030443,0.050302259759175,592.17818029918
0.51328124999999,0.052887159281124,0,57.254863591054,0.38229046941865,9.873937796105,1.0468389171286,677.7848972421,-0.0049750010301308,0.050332191712467,592.25259918576
0.51359374999999,0.052920182655449,0,57.254675000664,0.38230158697945,9.8738057040842,1.0468695745481,677.86879604181,-0.0049785652257775,0.050362122816768,592.32696946418
0.51390624999999,0.052953207031602,0,57.254486432855,0.38231270462743,9.8736736164035,1.0469002322764,677.95263908661,-0.0049821653036557,0.050392053072116,592.40129119296
0.51421874999999,0.052986232409579,0,57.254297887626,0.38232382236262,9.8735415330687,1.0469308903135,678.03642642984,-0.0049857780006993,0.050421982478542,592.47556439624
0.51453124999999,0.053019258789385,0,57.254109364955,0.3823349401846,9.8734094540852,1.046961548659,678.12015813937,-0.0049893473870078,0.050451911036084,592.54978908612
0.51484374999999,0.053052286171013,0,57.253920864861,0.38234605809359,9.8732773794598,1.0469922073129,678.20383420066,-0.0049929757232647,0.050481838744765,592.62396533741
0.51515624999999,0.053085314554469,0,57.332472544793,0.38235717608955,9.873145309198,1.0470228662749,678.28745468836,-0.0049965720223515,0.050511765604627,592.69809313467
0.51546874999999,0.053118343939748,0,57.33228408979,0.38236829417221,9.873013243306,1.0470535255448,678.37101958976,-0.0050002343874362,0.050541691615704,592.77217255285
0.51578124999999,0.05315137432685,0,57.332095657333,0.38237941234159,9.95162133927,1.0470841851224,678.45452904201,-0.0050038004931244,0.050571616778022,592.84620357326
0.51609374999999,0.053184405715776,0,57.331907247399,0.38239053059766,9.9514892821353,1.0471148450076,678.53798298575,-0.0050074127366964,0.050601541091623,592.92018626264
0.51640624999999,0.053217438106524,0,57.331718859987,0.38240164894004,10.030097386868,1.0471455052001,678.62138150613,-0.0050109949772147,0.050631464556537,592.99412063328
0.51671874999999,0.053250471499093,0,57.331530495087,0.38241276736901,10.029965338514,1.0471761656998,678.70472461245,-0.0050145953324496,0.050661387172798,593.06800673109
0.51703124999999,0.053283505893483,0,57.331342152701,0.38242388588418,10.02983329456,1.0472068265065,678.78801231759,-0.0050182438544766,0.050691308940436,593.14184459745
0.51734374999999,0.053316541289693,0,57.409893990284,0.3824350044859,10.02970125501,1.0472374876199,678.87124473564,-0.0050218173529974,0.05072122985949,593.21563422073
0.51765624999999,0.053349577687724,0,57.40970569288,0.38244612317368,10.029569219872,1.0472681490399,678.95442183795,-0.0050254220696328,0.050751149929991,593.28937566971
0.51796874999999,0.053382615087572,0,57.409517417953,0.38245724194776,10.02943718915,1.0472988107663,679.03754366267,-0.0050290450284149,0.050781069151974,593.36306896637
0.51828124999999,0.05341565348924,0,57.409329165502,0.38246836080777,10.029305162852,1.0473294727988,679.12061027554,-0.0050326468331269,0.050810987525471,593.43671413179
0.51859374999999,0.053448692892727,0,57.409140935521,0.38247947975376,10.029173140982,1.0473601351374,679.20362170051,-0.0050362481140438,0.050840905050514,593.51031120885
0.51890624999999,0.053481733298031,0,57.408952727993,0.38249059878556,10.107781281026,1.0473907977818,679.2865779811,-0.0050398275445469,0.050870821727139,593.58386021402
0.51921874999999,0.05351477470515,0,57.487504700396,0.38250171790338,10.107649268031,1.0474214607318,679.3694791347,-0.005043425459306,0.050900737555381,593.65736119247
0.51953124999999,0.053547817114087,0,57.487316537766,0.38251283710677,10.107517259482,1.0474521239872,679.45232517797,-0.0050470595924195,0.050930652535268,593.73081418224
0.51984374999999,0.053580860524839,0,57.487128397559,0.38252395639603,10.107385255384,1.0474827875479,679.53511618641,-0.0050506659070456,0.050960566666842,593.80421918999
0.52015624999999,0.053613904937405,0,57.486940279783,0.38253507577076,10.107253255745,1.0475134514136,679.61785220959,-0.0050542342498908,0.050990479950128,593.87757624903
0.52046874999999,0.053646950351785,0,57.48675218443,0.38254619523087,10.107121260569,1.0475441155841,679.70053321159,-0.0050578741778475,0.051020392385163,593.95088542382
0.52078124999999,0.053679996767979,0,57.486564111478,0.38255731477669,10.106989269862,1.0475747800593,679.78315930672,-0.005061456230613,0.051050303971983,594.02414670129
0.52109374999999,0.053713044185986,0,57.486376060931,0.38256843440762,10.10685728363,1.047605444839,679.86573045117,-0.0050651050243233,0.051080214710619,594.09736015199
0.52140624999999,0.053746092605806,0,57.486188032784,0.38257955412382,10.106725301879,1.047636109923,679.94824675555,-0.0050687044000967,0.051110124601102,594.17052576693
0.52171874999999,0.053779142027438,0,57.564740184499,0.38259067392543,10.106593324615,1.047666775311,680.03070823198,-0.005072291948498,0.051140033643471,594.2436435971
0.52203124999999,0.053812192450882,0,57.564552201111,0.38260179381204,10.106461351842,1.0476974410029,680.11311493028,-0.0050758514550837,0.051169941837757,594.31671366559
0.52234374999999,0.053845243876133,0,57.564364240093,0.38261291378359,10.106329383568,1.0477281069986,680.19546679115,-0.0050795153073629,0.051199849183994,594.38973603717
0.52265624999999,0.053878296303194,0,57.564176301441,0.38262403384028,10.106197419798,1.0477587732978,680.27776395727,-0.0050831244607258,0.051229755682214,594.4627106979
0.52296874999999,0.053911349732069,0,57.563988385144,0.38263515398184,10.106065460537,1.0477894399002,680.36000646209,-0.0050866912809412,0.051259661332452,594.53563768573
0.52328124999999,0.05394440416275,0,57.563800491192,0.38264627420802,10.105933505791,1.0478201068059,680.44219427652,-0.005090300847509,0.051289566134742,594.60851705463
0.52359374999999,0.05397745959524,0,57.563612619576,0.38265739451914,10.105801555566,1.0478507740144,680.52432745415,-0.0050939322348086,0.051319470089118,594.6813488274
0.52390624999999,0.054010516029537,0,57.563424770299,0.38266851491468,10.105669609868,1.0478814415257,680.60640607502,-0.0050975153532038,0.051349373195609,594.7541330122
0.52421874999999,0.054043573465641,0,57.56323694334,0.38267963539491,10.105537668701,1.0479121093396,680.68843013177,-0.0051011191590313,0.051379275454255,594.82686966668
0.52453124999999,0.054076631903549,0,57.563049138701,0.38269075595971,10.105405732073,1.0479427774559,680.77039966243,-0.0051047315813891,0.051409176865082,594.89955881222
0.52484374999999,0.054109691343268,0,57.56286135637,0.38270187660879,10.105273799989,1.0479734458743,680.85231470203,-0.0051083550247974,0.051439077428131,594.97220047695
0.52515624999999,0.054142751784789,0,57.562673596335,0.38271299734244,10.105141872453,1.0480041145947,680.93417532375,-0.0051119382838594,0.051468977143433,595.04479468516
0.52546874999999,0.054175813228113,0,57.562485858598,0.38272411816019,10.105009949473,1.048034783617,681.0159815026,-0.0051155667075108,0.051498876011019,595.11734148738
0.52578124999999,0.054208875673246,0,57.562298143142,0.38273523906213,10.104878031053,1.0480654529408,681.0977333347,-0.0051191559383907,0.051528774030927,595.18984089344
0.52609374999999,0.054241939120176,0,57.562110449967,0.38274636004814,10.183486274679,1.0480961225661,681.17943080962,-0.0051227547654974,0.051558671203185,595.26229293834
0.52640624999999,0.054275003568915,0,57.561922779055,0.38275748111821,10.183354365397,1.0481267924926,681.26107394892,-0.0051263998661208,0.051588567527834,595.33469766625
0.52671874999999,0.054308069019452,0,57.561735130409,0.38276860227236,10.183222460692,1.0481574627201,681.34266285379,-0.0051299933935817,0.051618463004901,595.40705508756
0.52703124999999,0.054341135471794,0,57.640287661499,0.38277972351027,10.183090560571,1.0481881332485,681.42419752697,-0.0051335832646436,0.051648357634421,595.47936524483
0.52734375,0.054374202925935,0,57.718840214832,0.38279084483207,10.182958665038,1.0482188040776,681.50567796046,-0.0051372199960485,0.051678251416429,595.55162816909
0.52765625,0.054407271381876,0,57.718652632922,0.38280196623753,10.182826774099,1.0482494752071,681.58710425662,-0.0051408184353605,0.051708144350961,595.62384388463
0.52796875,0.054440340839621,0,57.63972491576,0.38281308772669,10.182694887759,1.048280146637,681.66847643925,-0.0051443822930953,0.051738036438045,595.69601240628
0.52828125,0.054473411299161,0,57.639537378307,0.38282420929938,10.182563006025,1.0483108183669,681.74979447712,-0.0051480282593312,0.051767927677716,595.76813381538
0.52859375,0.054506482760501,0,57.639349863068,0.38283533095558,10.261171286382,1.0483414903968,681.83105849062,-0.0051516128922688,0.051797818070011,595.84020808573
0.52890625,0.05453955522364,0,57.639162370041,0.38284645269519,10.261039413875,1.0483721627263,681.91226845305,-0.0051552385513717,0.051827707614958,595.91223528658
0.52921875,0.054572628688577,0,57.638974899204,0.38285757451815,10.26090754599,1.0484028353554,681.99342443642,-0.0051588378779334,0.051857596312599,595.98421541965
0.52953125,0.054605703155309,0,57.638787450567,0.38286869642429,10.260775682732,1.0484335082839,682.07452643784,-0.0051624850652332,0.051887484162959,596.05614855231
0.52984375,0.05463877862384,0,57.638600024111,0.3828798184139,10.260643824107,1.0484641815115,682.15557456648,-0.0051660482298922,0.051917371166076,596.12803465769
0.53015625,0.054671855094166,0,57.638412619832,0.38289094048635,10.260511970121,1.0484948550381,682.23656878187,-0.0051696504124738,0.051947257321982,596.19987381143
0.53046875,0.054704932566287,0,57.638225237726,0.38290206264203,10.260380120778,1.0485255288634,682.3175091582,-0.0051732366544762,0.051977142630712,596.27166602934
0.53078125,0.054738011040203,0,57.638037877786,0.38291318488053,10.260248276086,1.0485562029874,682.39839570293,-0.0051768500124552,0.052007027092294,596.34341135437
0.53109375,0.054771090515913,0,57.637850539992,0.38292430720205,10.338856593528,1.0485868774097,682.47922841386,-0.0051805300176891,0.05203691070677,596.41510981825
0.53140625,0.054804170993417,0,57.637663224344,0.38293542960626,10.33872475815,1.0486175521303,682.56000743359,-0.0051841213839074,0.052066793474171,596.48676141134
0.53171875,0.054837252472715,0,57.637475930836,0.3829465520933,10.338592927438,1.0486482271489,682.64073273979,-0.0051877152887012,0.052096675394528,596.55836619517
0.53203125,0.054870334953805,0,57.716028816938,0.38295767466291,10.338461101398,1.0486789024653,682.72140435053,-0.0051913331762691,0.052126556467878,596.62992420241
0.53234375,0.054903418436686,0,57.715841567696,0.3829687973152,10.417069437514,1.0487095780794,682.80202235039,-0.0051949106161421,0.052156436694248,596.70143544829
0.53265625,0.054936502921358,0,57.715654340559,0.38297992004996,10.416937620833,1.048740253991,682.88258672876,-0.0051985020685886,0.052186316073678,596.77289997306
0.53296875,0.054969588407824,0,57.715467135543,0.38299104286715,10.416805808839,1.0487709301998,682.96309749584,-0.0052021482689299,0.052216194606197,596.84431782091
0.53328125,0.055002674896079,0,57.715279952615,0.38300216576676,10.416674001538,1.0488016067057,683.04355474875,-0.0052057480672502,0.052246072291845,596.91568898704
0.53359375,0.055035762386123,0,57.715092791782,0.38301328874856,10.416542198935,1.0488322835086,683.12395849324,-0.005209357887438,0.052275949130652,596.98701352598
0.53390625,0.055068850877955,0,57.714905653038,0.38302441181269,10.416410401036,1.0488629606081,683.20430874965,-0.0052129927443747,0.05230582512265,597.05829147003
0.53421875,0.055101940371579,0,57.714718536373,0.38303553495873,10.416278607847,1.0488936380042,683.2846055757,-0.0052166158027196,0.052335700267872,597.12952283404
0.53453125,0.05513503086699,0,57.714531441777,0.38304665818717,10.416146819372,1.0489243156966,683.36484902156,-0.0052202069535612,0.052365574566357,597.20070764624
0.53484375,0.055168122364188,0,57.714344369246,0.38305778149746,10.416015035617,1.0489549936852,683.44503908968,-0.0052238138338188,0.052395448018134,597.27184595081
0.53515625,0.055201214863172,0,57.714157318778,0.38306890488951,10.494623414068,1.0489856719698,683.52517583321,-0.0052274146107926,0.052425320623234,597.34293777182
0.53546875,0.055234308363944,0,57.713970290352,0.38308002836347,10.494491639769,1.0490163505501,683.60525925922,-0.0052310346658219,0.052455192381696,597.41398313962
0.53578125,0.055267402866502,0,57.713783283968,0.38309115191919,10.573100027687,1.049047029426,683.68528941028,-0.005234675060813,0.052485063293553,597.4849820934
0.53609375,0.055300498370845,0,57.713596299613,0.38310227555687,10.572968262865,1.0490777085974,683.76526637438,-0.0052382460678078,0.052514933358838,597.5559346283
0.53640625,0.055333594876972,0,57.71340933729,0.38311339927594,10.572836502791,1.0491083880639,683.84519013877,-0.0052418318016472,0.052544802577582,597.62684080886
0.53671875,0.055366692384888,0,57.713222396989,0.38312452307646,10.572704747469,1.0491390678255,683.92506072068,-0.0052454499826243,0.052574670949819,597.69770066183
0.53703125,0.055399790894581,0,57.713035478696,0.38313564695853,10.572572996904,1.049169747882,684.00487817511,-0.0052490672499557,0.052604538475586,597.76851421106
0.53734375,0.055432890406061,0,57.712848582407,0.38314677092203,10.651181408582,1.0492004282331,684.08464255028,-0.0052526657229262,0.052634405154913,597.83928147934
0.53765625,0.055465990919324,0,57.712661708118,0.3831578949669,10.651049667548,1.0492311088787,684.1643538188,-0.0052563400509765,0.052664270987836,597.91000252244
0.53796875,0.055499092434368,0,57.791215013296,0.38316901909291,10.650917931287,1.0492617898186,684.24401213774,-0.0052598991524492,0.052694135974386,597.98067731778
0.53828125,0.055532194951193,0,57.791028182972,0.3831801433001,10.650786199805,1.0492924710526,684.32361743476,-0.0052635070176112,0.052724000114601,598.05130594144
0.53859375,0.055565298469802,0,57.790841374624,0.3831912675883,10.650654473107,1.0493231525806,684.40316974715,-0.0052671588256434,0.052753863408511,598.12188841915
0.53890625,0.055598402990189,0,57.790654588246,0.38320239195765,10.650522751197,1.0493538344022,684.48266916437,-0.0052707729118459,0.05278372585615,598.19242476226
0.53921875,0.055631508512356,0,57.790467823823,0.38321351640793,10.650391034083,1.0493845165174,684.56211570387,-0.0052743729169598,0.052813587457552,598.26291500409
0.53953125,0.055664615036304,0,57.790281081354,0.38322464093912,10.650259321768,1.049415198926,684.64150937524,-0.0052779983854935,0.05284344821275,598.33335918575
0.53984375,0.05569772256203,0,57.790094360833,0.38323576555092,10.650127614258,1.0494458816278,684.72085027027,-0.0052815628367388,0.052873308121777,598.40375731436
0.54015625,0.055730831089535,0,57.868647819726,0.38324689024353,10.649995911557,1.0494765646226,684.80013832836,-0.0052852036901896,0.05290316718467,598.47410945241
0.54046875,0.05576394061882,0,57.947201300547,0.38325801501691,10.649864213673,1.0495072479101,684.87937367277,-0.0052887830188941,0.05293302540146,598.5444155923
0.54078125,0.055797051149879,0,57.947014645818,0.38326913987083,10.649732520609,1.0495379314903,684.95855627143,-0.0052924223733397,0.052962882772179,598.61467580766
0.54109375,0.055830162682716,0,57.946828013,0.38328026480526,10.64960083237,1.049568615363,685.03768618825,-0.0052960497793021,0.052992739296862,598.68489009434
0.54140625,0.055863275217329,0,57.946641402092,0.38329138982005,10.649469148963,1.0495992995279,685.11676347177,-0.0052996628934176,0.053022594975544,598.75505849135
0.54171875,0.055896388753719,0,57.946454813086,0.38330251491516,10.649337470392,1.0496299839849,685.19578814163,-0.0053032737801128,0.053052449808257,598.82518102725
0.54203125,0.055929503291882,0,57.946268245969,0.3833136400907,10.649205796662,1.0496606687337,685.27476024548,-0.005306859701906,0.053082303795037,598.89525772282
0.54234375,0.055962618831316,0,57.94608170101,0.38332476534618,10.649074127774,1.0496913537742,685.35368042487,-0.0053093366414548,0.053112156935592,598.96528822274
0.54265625,0.055995735373504,0,57.945895177411,0.38333589068205,10.648942463742,1.0497220391063,685.43254683597,-0.0053140688997551,0.053142009230901,599.03527375677
0.54296875,0.056028852916987,0,57.945708675937,0.383347016098,10.648810804568,1.0497527247297,685.51136137042,-0.0053177097971599,0.053171860680073,599.10521315353
0.54328125,0.056061971462251,0,57.945522196321,0.38335814159376,10.648679150256,1.0497834106443,685.59012348886,-0.0053213052305101,0.053201711283449,599.17510682069
0.54359375,0.056095091009285,0,57.945335738563,0.3833692671697,10.64854750081,1.0498140968498,685.66883317322,-0.005324938460267,0.053231561041056,599.24495481559
0.54390625,0.056128211558092,0,57.945149302656,0.38338039282534,10.648415856237,1.0498447833461,685.74749050241,-0.0053285422247928,0.053261409952932,599.31475715052
0.54421875,0.056161333108671,0,57.944962888593,0.38339151856064,10.648284216542,1.0498754701331,685.82609548763,-0.0053321484071994,0.053291258019104,599.38451385898
0.54453125,0.056194455661017,0,57.944776496366,0.38340264437591,10.648152581729,1.0499061572104,685.90464817574,-0.0053357377095333,0.053321105239611,599.4542249665
0.54484375,0.056227579215138,0,57.944590125969,0.38341377027061,10.648020951804,1.049936844578,685.98314854534,-0.0053393982246416,0.053350951614484,599.52389053224
0.54515625,0.056260703771028,0,58.023143934867,0.38342489624501,10.726629484252,1.0499675322356,686.06159670514,-0.0053430019715968,0.053380797143761,599.59351053746
0.54546875,0.056293829328688,0,58.101697765584,0.38343602229868,10.726497864117,1.0499982201831,686.13999266293,-0.0053466031315389,0.053410641827469,599.66308503801
0.54578125,0.056326955888117,0,58.101511460625,0.38344714843195,10.726366248885,1.0500289084202,686.21833643681,-0.0053502188978537,0.053440485665648,599.73261406391
0.54609375,0.056360083449315,0,58.101325177468,0.38345827464456,10.726234638562,1.0500595969469,686.2966280831,-0.0053538194105932,0.053470328658325,599.80209763501
0.54640625,0.056393212012281,0,58.101138916102,0.38346940093627,10.726103033151,1.0500902857629,686.37486763675,-0.0053574022695279,0.053500170805537,599.8715357834
0.54671875,0.056426341577014,0,58.100952676519,0.38348052730731,10.725971432659,1.050120974868,686.45305507054,-0.0053610543082838,0.053530012107322,599.94092855944
0.54703125,0.056459472143514,0,58.100766458712,0.3834916537575,10.72583983709,1.050151664262,686.53119048581,-0.0053646707079585,0.053559852563707,600.01027595927
0.54734375,0.056492603711783,0,58.17932042016,0.38350278028667,10.725708246449,1.0501823539449,686.60927390552,-0.0053682797665397,0.053589692174728,600.07957803012
0.54765625,0.056525736281816,0,58.179134245891,0.38351390689476,10.725576660742,1.0502130439163,686.68730534679,-0.0053719016122311,0.053619530940416,600.14883479997
0.54796875,0.056558869853618,0,58.178948093373,0.38352503358193,10.725445079973,1.0502437341761,686.76528486107,-0.0053755017511855,0.05364936886081,600.21804628677
0.54828125,0.056592004427182,0,58.17876196261,0.38353616034778,10.725313504147,1.0502744247241,686.84321247146,-0.0053791007919046,0.053679205935937,600.287212528
0.54859375,0.056625140002511,0,58.25731601107,0.3835472871924,10.72518193327,1.0503051155602,686.92108818577,-0.0053827465114859,0.053709042165837,600.35633356904
0.54890625,0.056658276579604,0,58.335870081265,0.38355841411587,10.725050367347,1.0503358066841,686.99891208975,-0.0053863499155948,0.05373887755054,600.42540941043
0.54921875,0.056691414158463,0,58.414424173185,0.38356954111787,10.724918806381,1.0503664980957,687.0766841892,-0.0053899516305374,0.053768712090078,600.49444009222
0.54953125,0.056724552739084,0,58.414238129349,0.38358066819836,10.72478725038,1.0503971897948,687.15440450863,-0.0053935726830665,0.053798545784488,600.56342565116
0.54984375,0.05675769232147,0,58.414052107218,0.38359179535733,10.724655699346,1.0504278817812,687.23207307783,-0.0053972083795807,0.053828378633806,600.63236611206
0.55015625,0.056790832905614,0,58.413866106802,0.38360292259489,10.724524153286,1.0504585740547,687.30968996813,-0.0054008146094146,0.053858210638057,600.70126149654
0.55046875,0.05682397449152,0,58.413680128085,0.38361404991053,10.724392612205,1.0504892666151,687.38725518246,-0.005404431127294,0.05388804179728,600.77011184199
0.55078125,0.05685711707919,0,58.413494171056,0.38362517730461,10.724261076106,1.0505199594624,687.46476877272,-0.0054080218908338,0.053917872111511,600.83891716269
0.55109375,0.056890260668621,0,58.413308235714,0.38363630477681,10.724129544996,1.0505506525962,687.54223074103,-0.005411646392299,0.05394770158078,600.90767751265
0.55140625,0.056923405259811,0,58.413122322046,0.38364743232732,10.802738176359,1.0505813460164,687.61964113174,-0.0054152807741211,0.053977530205121,600.97639290861
0.55171875,0.056956550852762,0,58.412936430057,0.38365855995553,10.80260665524,1.0506120397228,687.69700002001,-0.0054188698088815,0.054007357984567,601.04506336761
0.55203125,0.05698969744747,0,58.412750559734,0.383669687662,10.802475139125,1.0506427337152,687.77430737369,-0.0054225072286775,0.054037184919149,601.11368894356
0.55234375,0.057022845043939,0,58.412564711059,0.38368081544624,10.802343628017,1.0506734279936,687.85156326502,-0.0054261256104389,0.054067011008909,601.18226963784
0.55265625,0.057055993642168,0,58.412378884033,0.38369194330836,10.802212121923,1.0507041225575,687.92876771725,-0.0054297559722115,0.054096836253877,601.25080550328
0.55296875,0.057089143242153,0,58.412193078657,0.38370307124812,10.802080620846,1.050734817407,688.00592078573,-0.0054333523488953,0.054126660654081,601.31929654357
0.55328125,0.057122293843894,0,58.412007294919,0.38371419926579,10.801949124792,1.0507655125418,688.08302246136,-0.0054369902619345,0.054156484209558,601.38774281901
0.55359375,0.057155445447393,0,58.490561690281,0.38372532736102,10.801817633765,1.0507962079617,688.16007283348,-0.005440576019439,0.054186306920348,601.45614432488
0.55390625,0.05718859805265,0,58.56911610727,0.38373645553376,10.801686147771,1.0508269036666,688.23707189107,-0.0054441791688788,0.054216128786474,601.52450110989
0.55421875,0.057221751659664,0,58.568930388397,0.38374758378398,10.801554666815,1.0508575996563,688.31401968062,-0.0054477826704513,0.054245949807974,601.59281320179
0.55453125,0.057254906268432,0,58.568744691126,0.38375871211158,10.880163348381,1.0508882959305,688.39091620209,-0.0054514300984791,0.054275769984885,601.66108063653
0.55484375,0.057288061878952,0,58.647299172941,0.38376984051664,10.880031877514,1.0509189924891,688.46776155179,-0.005455035083167,0.054305589317235,601.72930342639
0.55515625,0.057321218491232,0,58.647113518867,0.38378096899884,10.879900411699,1.050949689332,688.54455569818,-0.0054586792709335,0.054335407805062,601.79748160962
0.55546875,0.057354376105265,0,58.725668043869,0.38379209755847,10.879768950941,1.0509803864589,688.62129874114,-0.0054622857923184,0.054365225448395,601.86561520903
0.55578125,0.057387534721048,0,58.804222590433,0.38380322619503,10.958377652724,1.0510110838697,688.69799067783,-0.005465881199955,0.054395042247276,601.93370424575
0.55609375,0.057420694338587,0,58.804037001109,0.38381435490877,10.958246202095,1.0510417815642,688.77463155007,-0.0054694807781293,0.054424858201726,602.00174876981
0.55640625,0.05745385495788,0,58.803851433337,0.3838254836993,10.958114756536,1.0510724795421,688.85122135737,-0.0054731109662353,0.054454673311791,602.06974880116
0.55671875,0.057487016578923,0,58.803665887133,0.38383661256698,10.957983316054,1.0511031778034,688.92776015537,-0.0054767546231721,0.054484487577496,602.13770437406
0.55703125,0.057520179201497,0,58.88222052035,0.38384774151107,10.957851880645,1.0511338763478,689.00424868131,-0.0054791885124827,0.054514300998619,602.20561509571
0.55734375,0.057553342826247,0,58.882035016896,0.38385887053244,10.95772045033,1.0511645751752,689.08068492991,-0.00548395741014,0.054544113575949,602.27348221929
0.55765625,0.057586507452549,0,58.881849535322,0.38386999963041,10.957589025105,1.0511952742854,689.15707090899,-0.0054875940550303,0.054573925308786,602.3413045563
0.55796875,0.057619673080598,0,58.881664075281,0.38388112880485,10.957457604976,1.0512259736783,689.23340603271,-0.0054912053282409,0.054603736197401,602.40908253883
0.55828125,0.057652839710397,0,58.881478636769,0.38389225805596,10.957326189946,1.0512566733535,689.30969030679,-0.0054948355547049,0.054633546241825,602.47681620391
0.55859375,0.057686007341945,0,58.88129321977,0.38390338738376,10.957194780022,1.051287373311,689.38592380895,-0.0054984093412396,0.054663355442095,602.54450555739
0.55890625,0.057719175975243,0,58.881107824287,0.38391451678773,10.957063375208,1.0513180735506,689.46210649581,-0.0055020467460387,0.054693163798242,602.61215066314
0.55921875,0.057752345610291,0,58.959662607782,0.3839256462682,10.956931975507,1.0513487740721,689.53823844415,-0.0055056760616409,0.054722971310303,602.67975152881
0.55953125,0.057785516247085,0,58.959477255298,0.38393677582505,10.956800580926,1.0513794748753,689.61431970323,-0.0055092734827809,0.054752777978307,602.74730817433
0.55984375,0.057818687885629,0,58.959291924304,0.38394790545796,10.956669191469,1.05141017596,689.69035025994,-0.0055129148263585,0.05478258380229,602.81482065198
0.56015625,0.057851860525918,0,58.959106614792,0.38395903516702,10.956537807141,1.0514408773261,689.76633017782,-0.0055165498043965,0.054812388782287,602.88228897541
0.56046875,0.057885034167955,0,59.037661484235,0.38397016495228,10.956406427946,1.0514715789733,689.84225949209,-0.005520173607273,0.05484219291833,602.94971317396
0.56078125,0.057918208811738,0,59.037476217675,0.38398129481364,10.956275053889,1.0515022809016,689.91813825431,-0.0055237578861846,0.05487199621045,603.01709326401
0.56109375,0.057951384457267,0,59.116031130053,0.38399242475077,10.956143684975,1.0515329831106,689.99396644799,-0.005527380000383,0.054901798658685,603.0844292986
0.56140625,0.057984561104546,0,59.115845906407,0.38400355476386,10.956012321209,1.0515636856004,690.06974411566,-0.0055310212516666,0.054931600263068,603.15172129787
0.56171875,0.058017738753564,0,59.115660704217,0.38401468485281,10.955880962595,1.0515943883705,690.14547133462,-0.0055346193597589,0.054961401023629,603.21896927859
0.56203125,0.058050917404331,0,59.115475523458,0.38402581501735,11.034489766618,1.051625091421,690.22114807315,-0.0055382592971752,0.054991200940405,603.28617328205
0.56234375,0.058084097056838,0,59.115290364143,0.38403694525773,11.034358418322,1.0516557947516,690.29677443118,-0.0055418515335237,0.055021000013429,603.35333332086
0.56265625,0.058117277711093,0,59.115105226257,0.38404807557356,11.034227075193,1.0516864983621,690.37235039894,-0.0055454671529841,0.055050798242734,603.42044944848
0.56296875,0.058150459367088,0,59.193660267264,0.38405920596506,11.034095737235,1.0517172022523,690.44787600764,-0.005549080427379,0.055080595628354,603.48752166595
0.56328125,0.058183642024829,0,59.193475172221,0.38407033643189,11.033964404453,1.0517479064221,690.52335130136,-0.0055527064493502,0.055110392170321,603.55455002651
0.56359375,0.058216825684309,0,59.350770413537,0.38408146697417,11.033833076851,1.0517786108713,690.59877630581,-0.0055563358006033,0.055140187868671,603.6215345434
0.56390625,0.058250010345415,0,59.350585361396,0.3840925975917,11.033701754432,1.0518093155998,690.67415126651,-0.0055596102515935,0.055169982723339,603.6884751321
0.56421875,0.058283196008493,0,59.350400330461,0.38410372828455,11.033570437205,1.0518400206072,690.7494756106,-0.0055635694572353,0.055199776734646,603.75537216615
0.56453125,0.058316382673199,0,59.350215321,0.38411485905277,11.033439125172,1.0518707258936,690.82474998167,-0.0055671565458512,0.055229569902343,603.82222531475
0.56484375,0.058349570339253,0,59.350030333248,0.38412598989563,11.033307818332,1.0519014314585,690.89997476308,-0.00556976755705,0.055259362226235,603.88903440852
0.56515625,0.05838275900781,0,59.34984536625,0.38413712081398,11.033176516701,1.0519321373021,690.97514824462,-0.0055744288984515,0.055289153707297,603.9558005009
0.56546875,0.058415948677738,0,59.349660420916,0.38414825180722,11.033045220278,1.0519628434239,691.05027223048,-0.0055780483412794,0.055318944344644,604.02252255703
0.56578125,0.058449139349406,0,59.349475496952,0.38415938287536,11.032913929069,1.0519935498239,691.12534618319,-0.0055816391169316,0.055348734138605,604.08920096796
0.56609375,0.058482331022812,0,59.349290594329,0.38417051401842,11.032782643076,1.052024256502,691.20037005986,-0.0055853017191058,0.055378523089221,604.15583577997
0.56640625,0.058515523697958,0,59.349105713064,0.38418164523626,11.032651362305,1.0520549634578,691.27534398196,-0.0055889132742954,0.055408311196519,604.22242699198
0.56671875,0.058548717374841,0,59.42766101062,0.38419277652881,11.032520086761,1.0520856706912,691.35026793386,-0.0055925413042454,0.055438098460533,604.28897464977
0.56703125,0.058581912053464,0,59.50621632951,0.38420390789597,11.032388816449,1.0521163782021,691.42514197479,-0.0055961446027125,0.0554678848813,604.35547877138
0.56734375,0.058615107733821,0,59.506031512245,0.38421503933777,11.032257551372,1.0521470859902,691.49996612233,-0.0055997451968675,0.055497670458852,604.42193938451
0.56765625,0.058648304415918,0,59.584586873779,0.38422617085409,11.110866449015,1.0521777940554,691.57474037366,-0.005603392495502,0.055527455193225,604.48835653393
0.56796875,0.058681502099751,0,59.66314225663,0.38423730244477,11.110735194423,1.0522085023976,691.64946481806,-0.0056070074671997,0.055557239084446,604.55473023168
0.56828125,0.058714700785317,0,59.741697660791,0.38424843410982,11.18934410256,1.0522392110165,691.72413948934,-0.0056105882972725,0.055587022132554,604.62106049943
0.56859375,0.058747900472624,0,59.741512928769,0.38425956584922,11.189212858471,1.052269919912,691.79876433588,-0.0056142509378353,0.055616804337583,604.68734739355
0.56890625,0.058781101161662,0,59.820068375528,0.38427069766287,11.189081619641,1.0523006290838,691.87333948841,-0.005617858384889,0.055646585699562,604.75359091258
0.56921875,0.058814302852437,0,59.898623843569,0.38428182955078,11.188950386073,1.0523313385319,691.9478649223,-0.0056214932508231,0.05567636621853,604.81979110392
0.56953125,0.058847505544945,0,59.898439175418,0.38429296151263,11.188819157773,1.052362048256,692.02234070288,-0.0056251042257568,0.055706145894515,604.88594798177
0.56984375,0.058880709239188,0,59.898254528532,0.38430409354863,11.188687934745,1.052392758256,692.09676684298,-0.0056287138828634,0.055735924727557,604.95206157545
0.57015625,0.058913913935164,0,59.898069902923,0.38431522565846,11.188556716994,1.0524234685316,692.17114336895,-0.0056323476115551,0.055765702717683,605.01813192827
0.57046875,0.058947119632875,0,59.897885298576,0.38432635784251,11.267165662004,1.0524541790828,692.24547034086,-0.0056359521606971,0.05579547986493,605.08415904987
0.57078125,0.058980326332318,0,59.976440872959,0.38433749010008,11.3457746123,1.0524848899093,692.31974772944,-0.0056396189036654,0.055825256169333,605.15014299044
0.57109375,0.059013534033494,0,59.97625631111,0.38434862243164,11.345643410405,1.0525156010109,692.39397566204,-0.0056431973717987,0.055855031630924,605.21608373282
0.57140625,0.0590467427364,0,59.976071770503,0.38435975483672,11.345512213805,1.0525463123876,692.46815410371,-0.0056468056888712,0.055884806249736,605.2819813475
0.57171875,0.059079952441041,0,60.054627408612,0.38437088731556,11.345381022503,1.052577024039,692.54228308033,-0.0056504488834389,0.055914580025804,605.34783586258
0.57203125,0.059113163147408,0,60.133183067949,0.38438201986794,11.345249836506,1.0526077359651,692.61636264935,-0.0056540777369797,0.055944352959159,605.41364728256
0.57234375,0.059146374855509,0,60.132998591028,0.38439315249375,11.345118655816,1.0526384481657,692.69039283774,-0.0056577077418957,0.055974125049837,605.47941564612
0.57265625,0.05917958756534,0,60.132814135322,0.38440428519305,11.344987480438,1.0526691606405,692.76437368712,-0.0056613212551308,0.056003896297871,605.54514097713
0.57296875,0.059212801276902,0,60.290110015784,0.38441541796566,11.344856310378,1.0526998733894,692.83830522233,-0.0056649337817171,0.056033666703296,605.61082330173
0.57328125,0.059246015990193,0,60.447405917451,0.3844265508116,11.344725145638,1.0527305864123,692.91218745744,-0.0056685692610588,0.056063436266142,605.67646266427
0.57359375,0.059279231705211,0,60.44722152536,0.38443768373082,11.344593986225,1.052761299709,692.98602045967,-0.0056721845893616,0.056093204986442,605.74205907603
0.57390625,0.059312448421961,0,60.447037154445,0.38444881672323,11.344462832141,1.0527920132792,693.05980421256,-0.0056758223733359,0.056122972864237,605.80761256567
0.57421875,0.059345666140439,0,60.446852804714,0.38445994978887,11.344331683392,1.0528227271228,693.13353879718,-0.0056794410710134,0.056152739899558,605.87312316564
0.57453125,0.059378884860642,0,60.446668476167,0.38447108292737,11.344200539982,1.0528534412397,693.20722422345,-0.0056830606378915,0.056182506092429,605.93859089854
0.57484375,0.059412104582576,0,60.525224326265,0.38448221613891,11.344069401916,1.0528841556296,693.28086052858,-0.0056866724886225,0.056212271442895,606.00401579553
0.57515625,0.059445325306234,0,60.525040040049,0.38449334942318,11.343938269197,1.0529148702924,693.35444772507,-0.0056903084225116,0.056242035950984,606.06939789083
0.57546875,0.059478547031622,0,60.524855774988,0.38450448278053,11.34380714183,1.052945585228,693.42798587585,-0.0056939196487602,0.056271799616733,606.13473719867
0.57578125,0.059511769758737,0,60.524671531071,0.38451561621049,11.34367601982,1.0529763004361,693.501474988,-0.0056975392256097,0.056301562440175,606.20003375159
0.57609375,0.059544993487575,0,60.524487308308,0.38452674971326,11.343544903171,1.0530070159165,693.574915114,-0.0057011487876195,0.05633132442134,606.26528758113
0.57640625,0.059578218218136,0,60.681783421643,0.38453788328868,11.343413791888,1.0530377316691,693.64830627602,-0.0057047597127591,0.056361085560261,606.33049871645
0.57671875,0.059611443950431,0,60.68159924113,0.38454901693658,11.343282685974,1.0530684476938,693.72164847486,-0.0057083937261213,0.056390845856983,606.39566717446
0.57703125,0.059644670684443,0,60.68141508176,0.38456015065701,11.343151585434,1.0530991639903,693.79494177796,-0.0057120322877229,0.056420605311524,606.46079299938
0.57734375,0.059677898420184,0,60.681230943499,0.38457128444984,11.343020490272,1.0531298805585,693.8681862213,-0.0057156447656021,0.056450363923928,606.52587619912
0.57765625,0.059711127157647,0,60.838527141312,0.38458241831508,11.421629557973,1.0531605973982,693.94138182341,-0.0057192640192913,0.056480121694224,606.59091681066
0.57796875,0.059744356896833,0,60.838343045271,0.38459355225264,11.421498473582,1.0531913145092,694.01452858202,-0.0057229380641612,0.056509878622445,606.65591487978
0.57828125,0.059777587637745,0,60.838158970326,0.38460468626246,11.421367394582,1.0532220318913,694.08762662874,-0.0057265104556027,0.05653963470863,606.72087038494
0.57859375,0.059810819380378,0,60.916715073956,0.38461582034447,11.421236320977,1.0532527495445,694.16067587879,-0.0057301630370657,0.056569389952807,606.78578340576
0.57890625,0.059844052124734,0,61.074011356148,0.38462695449864,11.421105252773,1.0532834674684,694.23367643484,-0.0057337849277283,0.056599144355013,606.85065393984
0.57921875,0.059877285870811,0,61.152567501946,0.38463808872483,11.420974189974,1.053314185663,694.30662832944,-0.0057373814231477,0.056628897915278,606.91548201843
0.57953125,0.059910520618613,0,61.152383511324,0.38464922302284,11.420843132583,1.0533449041281,694.37953154559,-0.0057410101699476,0.056658650633641,606.98026767544
0.57984375,0.059943756368134,0,61.152199541775,0.38466035739297,11.420712080605,1.0533756228634,694.4523861439,-0.0057446442414642,0.05668840251013,607.04501094392
0.58015625,0.059976993119376,0,61.152015593285,0.38467149183496,11.420581034044,1.0534063418688,694.52519215347,-0.0057482756388176,0.056718153544782,607.10971183624
0.58046875,0.06001023087234,0,61.151831665854,0.3846826263486,11.420449992905,1.0534370611442,694.59794962451,-0.005751890625159,0.056747903737628,607.17437038785
0.58078125,0.060043469627024,0,61.151647759457,0.38469376093391,11.499059114672,1.0534677806894,694.67065856264,-0.0057555042802956,0.056777653088708,607.23898661624
0.58109375,0.060076709383427,0,61.230204031595,0.38470489559104,11.49892808439,1.0534985005042,694.74331900077,-0.0057591416483624,0.056807401598044,607.30356057412
0.58140625,0.060109950141551,0,61.308760324756,0.38471603031969,11.498797059541,1.0535292205883,694.81593095971,-0.0057627921202527,0.056837149265682,607.36809226354
0.58171875,0.060143191901391,0,61.387316638957,0.38472716511983,11.498666040131,1.0535599409418,694.888494534,-0.0057663878321775,0.056866896091645,607.43258171437
0.58203125,0.060176434662954,0,61.465872974166,0.38473829999158,11.498535026165,1.0535906615643,694.96100967585,-0.0057700244117688,0.056896642075976,607.4970289657
0.58234375,0.060209678426233,0,61.465689172913,0.38474943493445,11.498404017645,1.0536213824558,695.03347645358,-0.0057736538995894,0.056926387218704,607.56143403546
0.58265625,0.060242923191233,0,61.465505392676,0.38476056994893,11.498273014577,1.0536521036159,695.10589489675,-0.0057772867507486,0.05695613151986,607.62579695708
0.58296875,0.060276168957946,0,61.54406179092,0.38477170503463,11.498142016965,1.0536828250447,695.17826505808,-0.0057808846919155,0.056985874979481,607.69011774447
0.58328125,0.060309415726378,0,61.543878052677,0.38478284019152,11.498011024813,1.0537135467418,695.2505869285,-0.005784510266799,0.057015617597601,607.75439644208
0.58359375,0.060342663496529,0,61.54369433542,0.38479397541939,11.497880038125,1.0537442687072,695.32286054223,-0.0057881516400315,0.057045359374253,607.81863307076
0.58390625,0.060375912268397,0,61.543510639157,0.38480511071837,11.497749056905,1.0537749909406,695.39508599033,-0.0057917380767052,0.057075100309468,607.88282765142
0.58421875,0.06040916204198,0,61.622067121341,0.38481624608852,11.497618081158,1.0538057134419,695.46726320249,-0.0057953949509874,0.057104840403284,607.94698022637
0.58453125,0.060442412817276,0,61.621883467023,0.38482738152952,11.497487110888,1.0538364362109,695.53939228663,-0.0057990280457099,0.057134579655729,608.0110908098
0.58484375,0.060475664594291,0,61.621699833663,0.38483851704135,11.497356146099,1.0538671592475,695.61147326453,-0.0058026361092559,0.057164318066843,608.07515942032
0.58515625,0.06050891737302,0,61.621516221267,0.38484965262412,11.497225186796,1.0538978825514,695.68350613778,-0.0058062807025076,0.057194055636655,608.13918611134
0.58546875,0.060542171153464,0,61.621332629818,0.38486078827749,11.497094232981,1.0539286061225,695.75549094876,-0.0058099279874149,0.057223792365202,608.20317088932
0.58578125,0.060575425935623,0,61.699889216794,0.3848719240017,11.496963284661,1.0539593299607,695.82742776301,-0.0058135365861854,0.057253528252515,608.26711377891
0.58609375,0.060608681719495,0,61.699705667239,0.38488305979634,11.496832341838,1.0539900540657,695.89931659826,-0.0058171311832133,0.057283263298625,608.33101481347
0.58640625,0.060641938505083,0,61.778262296085,0.38489419566164,11.496701404517,1.0540207784374,695.97115744528,-0.0058207568335593,0.057312997503574,608.39487402608
0.58671875,0.060675196292383,0,61.77807878839,0.38490533159734,11.496570472702,1.0540515030755,696.04295036894,-0.0058243812473683,0.057342730867384,608.45869144486
0.58703125,0.060708455081394,0,61.777895301605,0.38491646760369,11.575179703878,1.0540822279801,696.1146953661,-0.0058280393070806,0.0573724633901,608.5224670954
0.58734375,0.060741714872124,0,61.777711835729,0.38492760368021,11.575048783088,1.0541129531508,696.18639249677,-0.0058316846473035,0.057402195071754,608.58620098977
0.58765625,0.060774975664559,0,61.777528390777,0.38493873982719,11.574917867817,1.0541436785875,696.25804185069,-0.0058352522559243,0.057431925912369,608.64989315244
0.58796875,0.060808237458712,0,61.777344966716,0.38494987604427,11.574786958068,1.0541744042901,696.32964333504,-0.0058389065282096,0.05746165591199,608.71354364374
0.58828125,0.060841500254571,0,61.777161563552,0.38496101233153,11.574656053846,1.0542051302583,696.40119707553,-0.0058425182518877,0.057491385070646,608.77715246201
0.58859375,0.060874764052144,0,61.776978181279,0.38497214868894,11.574525155155,1.054235856492,696.47270303594,-0.0058461815868038,0.057521113388369,608.84071965146
0.58890625,0.060908028851429,0,61.776794819889,0.38498328511642,11.574394261999,1.0542665829911,696.54416132999,-0.0058497711947463,0.057550840865195,608.90424521005
0.58921875,0.060941294652425,0,61.77661147938,0.38499442161385,11.574263374382,1.0542973097552,696.61557192581,-0.0058533900577728,0.057580567501158,608.96772919498
0.58953125,0.060974561455128,0,61.855168317216,0.38500555818133,11.574132492309,1.0543280367844,696.68693485026,-0.0058570324177566,0.057610293296291,609.03117162657
0.58984375,0.061007829259544,0,61.854985018437,0.38501669481839,11.574001615783,1.0543587640784,696.75825015598,-0.0058606710020338,0.057640018250627,609.09457252505
0.59015625,0.061041098065669,0,61.933541897997,0.38502783152545,11.573870744809,1.054389491637,696.82951787141,-0.0058643090334247,0.057669742364199,609.15793191915
0.59046875,0.061074367873502,0,62.012098798405,0.3850389683022,11.57373987939,1.0544202194601,696.90073803653,-0.0058679334717661,0.057699465637045,609.22124982924
0.59078125,0.061107638683045,0,62.011915562188,0.38505010514855,11.573609019531,1.0544509475476,696.97191068072,-0.0058715508648206,0.057729188069191,609.28452629252
0.59109375,0.061140910494294,0,62.090472504285,0.38506124206453,11.573478165236,1.0544816758991,697.04303583276,-0.0058751573810532,0.057758909660677,609.34776132602
0.59140625000001,0.061174183307256,0,62.090289309737,0.38507237905008,11.573347316508,1.0545124045146,697.11411348893,-0.0058788089164686,0.057788630411532,609.41095497622
0.59171875000001,0.061207457121924,0,62.090106136013,0.3850835161051,11.573216473353,1.054543133394,697.1851437247,-0.0058824321618858,0.057818350321796,609.47410724456
0.59203125000001,0.061240731938299,0,62.089922983112,0.38509465322956,11.573085635774,1.0545738625369,697.25612655711,-0.0058860547605994,0.057848069391497,609.53721816974
0.59234375000001,0.06127400775638,0,62.089739851026,0.38510579042321,11.572954803774,1.0546045919433,697.32706199823,-0.0058897038332196,0.05787778762067,609.60028778566
0.59265625000001,0.06130728457617,0,62.168296897224,0.38511692768634,11.572823977359,1.054635321613,697.39795009642,-0.0058933436820001,0.05790750500935,609.66331610578
0.59296875000001,0.061340562397665,0,62.168113806759,0.38512806501848,11.572693156532,1.0546660515458,697.46879089879,-0.0058969674495987,0.057937221557565,609.72630316272
0.59328125000001,0.061373841220868,0,62.089190579597,0.38513920242005,11.572562341297,1.0546967817416,697.53958440754,-0.0059005935900242,0.057966937265355,609.7892489732
0.59359375000001,0.061407121045774,0,62.089007530711,0.38515033989053,11.572431531658,1.0547275122002,697.61033066747,-0.0059042220050998,0.057996652132753,609.8521535809
0.59390625000001,0.061440401872389,0,62.088824502605,0.38516147743011,11.572300727619,1.0547582429214,697.68102972969,-0.0059078164140849,0.058026366159791,609.91501699133
0.59421875000001,0.061473683700707,0,62.088641495284,0.38517261503854,11.572169929185,1.054788973905,697.75168157305,-0.0059114584286805,0.058056079346501,609.97783926461
0.59453125000001,0.06150696653073,0,62.088458508731,0.38518375271601,11.572039136359,1.0548197051509,697.8222862579,-0.0059150881850413,0.058085791692918,610.04062039722
0.59484375000001,0.061540250362458,0,62.167015700426,0.38519489046231,11.571908349146,1.054850436659,697.89284382391,-0.0059187064328657,0.058115503199077,610.10336042347
0.59515625000001,0.061573535195893,0,62.166832755396,0.38520602827726,11.571777567548,1.0548811684289,697.96335426786,-0.0059223552294714,0.058145213865011,610.16605937665
0.59546875000001,0.061606821031027,0,62.245389988601,0.38521716616109,11.571646791571,1.0549119004607,698.03381765599,-0.0059259811348463,0.058174923690754,610.22871727158
0.59578125000001,0.061640107867866,0,62.245207085075,0.38522830411352,11.571516021218,1.0549426327541,698.10423398827,-0.0059296363727956,0.058204632676336,610.29133414996
0.59609375000001,0.061673395706411,0,62.245024202288,0.38523944213455,11.571385256493,1.0549733653089,698.17460333821,-0.0059332575925439,0.058234340821796,610.35391002368
0.59640625000001,0.061706684546657,0,62.323581497721,0.38525058022392,11.5712544974,1.055004098125,698.24492570524,-0.0059368834167635,0.058264048127164,610.41644492202
0.59671875000001,0.061739974388608,0,62.323398656401,0.38526171838214,11.571123743944,1.0550348312022,698.31520111938,-0.0059405178315126,0.058293754592474,610.47893888007
0.59703125000001,0.061773265232261,0,62.323215835806,0.38527285660856,11.570992996127,1.0550655645403,698.38542962013,-0.005944148033604,0.05832346021776,610.54139191548
0.59734375000001,0.061806557077611,0,62.323033035927,0.38528399490325,11.570862253955,1.0550962981392,698.4556112373,-0.0059477774541164,0.058353165003054,610.6038040594
0.59765625000001,0.061839849924667,0,62.322850256763,0.38529513326644,11.570731517431,1.0551270319987,698.52574600487,-0.0059513943903169,0.058382868948393,610.6661753321
0.59796875000001,0.061873143773423,0,62.322667498298,0.38530627169763,11.570600786559,1.0551577661187,698.59583394332,-0.005955018375736,0.058412572053809,610.72850576489
0.59828125000001,0.06190643862388,0,62.322484760532,0.38531741019711,11.570470061342,1.0551885004989,698.66587507839,-0.0059586529630191,0.058442274319337,610.79079538533
0.59859375000001,0.06193973447604,0,62.401042200946,0.38532854876457,11.570339341786,1.0552192351392,698.73586944772,-0.0059622919220449,0.058471975745006,610.85304422314
0.59890625000001,0.061973031329896,0,62.479599662045,0.38533968740024,11.570208627894,1.0552499700395,698.80581708898,-0.0059659250437383,0.058501676330852,610.91525229783
0.59921875000001,0.062006329185458,0,62.479416986338,0.38535082610377,11.570077919669,1.0552807051995,698.87571802171,-0.0059695553643114,0.058531376076913,610.97741963262
0.59953125000001,0.062039628042715,0,62.479234331316,0.38536196487524,11.648687374596,1.0553114406192,698.94557228714,-0.0059731861023514,0.058561074983215,611.03954626342
0.59984375000001,0.062072927901675,0,62.479051696952,0.38537310371451,11.648556677718,1.0553421762982,699.0153799116,-0.0059768025702722,0.058590773049799,611.10163220243
0.60015625000001,0.062106228762332,0,62.478869083256,0.38538424262166,11.64842598652,1.0553729122366,699.08514091052,-0.0059804404867618,0.058620470276694,611.16367749184
0.60046875000001,0.062139530624688,0,62.557426647697,0.38539538159641,11.648295301005,1.055403648434,699.15485534264,-0.0059840582559249,0.058650166663935,611.22568214918
0.60078125000001,0.062172833488743,0,62.557244075312,0.38540652063882,11.648164621178,1.0554343848904,699.22452321049,-0.0059876947843423,0.058679862211554,611.2876462066
0.60109375000001,0.062206137354495,0,62.635801681052,0.38541765974896,11.648033947042,1.0554651216056,699.29414454479,-0.0059913482384175,0.058709556919587,611.34956969267
0.60140625000001,0.062239442221946,0,62.635619149947,0.38542879892653,11.6479032786,1.0554958585794,699.36371940258,-0.0059949661965276,0.058739250788064,611.41145261125
0.60171875000001,0.062272748091096,0,62.635436639477,0.38543993817166,11.647772615858,1.0555265958116,699.43324778326,-0.0059986159505782,0.058768943817022,611.47329501664
0.60203125000001,0.062306054961941,0,62.63525414963,0.38545107748418,11.647641958819,1.0555573333021,699.5027297509,-0.006002229589975,0.058798636006497,611.53509690996
0.60234375000001,0.062339362834483,0,62.635071680409,0.38546221686414,11.647511307486,1.0555880710506,699.57216532368,-0.0060058390357772,0.058828327356515,611.59685833268
0.60265625000001,0.062372671708726,0,62.634889231802,0.38547335631128,11.647380661863,1.0556188090572,699.6415545035,-0.0060094776539677,0.058858017867115,611.65857931516
0.60296875000001,0.062405981584664,0,62.634706803805,0.38548449582567,11.647250021955,1.0556495473215,699.71089733368,-0.0060131285232519,0.058887707538329,611.72025988038
0.60328125000001,0.062439292462295,0,62.634524396406,0.38549563540724,11.647119387765,1.0556802858434,699.78019387964,-0.0060167330889214,0.058917396370194,611.78190003663
0.60359375000001,0.062472604341627,0,62.634342009609,0.38550677505598,11.646988759297,1.0557110246228,699.84944411618,-0.006020379128174,0.058947084362738,611.84349983469
0.60390625000001,0.06250591722265,0,62.634159643403,0.38551791477159,11.646858136556,1.0557417636594,699.91864810836,-0.0060240189207074,0.058976771515996,611.90505928986
0.60421875000001,0.062539231105367,0,62.712717455268,0.38552905455437,11.646727519544,1.0557725029532,699.98780588404,-0.0060276522046305,0.059006457830001,611.96657843277
0.60453125000001,0.062572545989782,0,62.712535130216,0.3855401944041,11.646596908265,1.0558032425039,700.05691747516,-0.0060312628429093,0.059036143304796,612.02805726549
0.60484375000001,0.062605861875893,0,62.712352825755,0.38555133432056,11.646466302724,1.0558339823114,700.1259829067,-0.0060348831357987,0.0590658279404,612.08949584752
0.60515625000001,0.062639178763695,0,62.712170541854,0.3855624743038,11.646335702924,1.0558647223755,700.19500218419,-0.0060385293851195,0.059095511736856,612.1508941936
0.60546875000001,0.062672496653193,0,62.711988278514,0.38557361435395,11.646205108869,1.0558954626961,700.26397534458,-0.0060421982906587,0.059125194694195,612.21225233209
0.60578125000001,0.062705815544385,0,62.711806035737,0.38558475447054,11.646074520563,1.055926203273,700.3329024813,-0.0060457950397745,0.05915487681245,612.27357026458
0.60609375000001,0.06273913543727,0,62.869104128457,0.38559589465407,11.645943938009,1.055956944106,700.4017835386,-0.0060494426087018,0.059184558091659,612.33484804756
0.60640625000001,0.062772456331848,0,62.947662084253,0.38560703490402,11.645813361212,1.055987685195,700.47061860033,-0.0060530735083365,0.059214238531848,612.39608569777
0.60671875000001,0.062805778228119,0,62.947479903099,0.38561817522043,11.645682790175,1.0560184265397,700.53940767374,-0.0060567038941427,0.059243918133056,612.4572832324
0.60703125000001,0.062839101126084,0,62.947297742482,0.38562931560331,11.645552224902,1.0560491681401,700.60815078808,-0.006060352520141,0.059273596895315,612.51844069483
0.60734375000001,0.062872425025741,0,63.025855759867,0.38564045605258,11.645421665397,1.056079909996,700.67684799887,-0.0060639567785421,0.05930327481866,612.57955807852
0.60765625000001,0.062905749927088,0,63.025673640297,0.38565159656822,11.645291111663,1.0561106521071,700.74549928853,-0.0060676136202259,0.059332951903121,612.64063545095
0.60796875000001,0.062939075830132,0,63.025491541244,0.38566273715005,11.645160563705,1.0561413944734,700.81410474167,-0.0060712305543981,0.059362628148734,612.70167280767
0.60828125000001,0.062972402734861,0,63.025309462688,0.38567387779799,11.645030021525,1.0561721370947,700.88266433478,-0.0060748771358899,0.059392303555536,612.76267018612
0.60859375000001,0.063005730641285,0,63.025127404648,0.38568501851223,11.644899485129,1.0562028799708,700.951178149,-0.0060784947423461,0.059421978123553,612.82362761071
0.60890625000001,0.0630390595494,0,63.0249453671,0.38569615929252,11.644768954518,1.0562336231015,701.0196461744,-0.0060821279816948,0.059451651852823,612.88454510626
0.60921875000001,0.063072389459203,0,63.024763350042,0.38570730013882,11.723378587179,1.0562643664868,701.08806845896,-0.0060857580990874,0.059481324743381,612.9454227
0.60953125000001,0.0631057203707,0,63.024581353468,0.38571844105102,11.723248068153,1.0562951101263,701.15644501462,-0.0060894083336671,0.059510996795261,613.00626042162
0.60984375000001,0.063139052283884,0,63.103139534858,0.38572958202934,11.723117554925,1.05632585402,701.22477589592,-0.0060930409758671,0.05954066800849,613.06705829001
0.61015625000001,0.063172385198759,0,63.102957579239,0.38574072307321,11.722987047499,1.0563565981677,701.29306113194,-0.0060966568056395,0.05957033838311,613.12781632466
0.61046875000001,0.063205719115324,0,63.102775644089,0.38575186418286,11.801596703358,1.0563873425692,701.36130073425,-0.0061002861390561,0.059600007919148,613.18853456704
0.61078125000001,0.063239054033578,0,63.181333886879,0.38576300535837,11.801466207545,1.0564180872244,701.42949472723,-0.0061039347058473,0.059629676616641,613.24921303908
0.61109375000001,0.063272389953521,0,63.181151992652,0.38577414659938,11.880075875026,1.0564488321331,701.49764315781,-0.006107576901326,0.059659344475622,613.30985176386
0.61140625000001,0.063305726875154,0,63.259710276345,0.38578528790625,11.879945390843,1.0564795772952,701.56574605623,-0.0061112040381217,0.059689011496127,613.37045075596
0.61171875000001,0.063339064798477,0,63.495748895454,0.38579642927843,11.87981491248,1.0565103227104,701.63380344284,-0.006114845016259,0.059718677678182,613.43101005992
0.61203125000001,0.063372403723484,0,63.495567062549,0.38580757071626,11.87968443994,1.0565410683786,701.70181535274,-0.0061184718529723,0.059748343021832,613.49152968308
0.61234375000001,0.063405743650179,0,63.495385250086,0.38581871221932,11.879553973228,1.0565718142997,701.76978180589,-0.0061221200093235,0.0597780075271,613.55200967246
0.61265625000001,0.063439084578564,0,63.495203458047,0.38582985378797,11.879423512346,1.0566025604735,701.83770283854,-0.0061257639262634,0.059807671194025,613.61245003487
0.61296875000001,0.063472426508636,0,63.495021686432,0.38584099542184,11.8792930573,1.0566333068998,701.90557848585,-0.0061294019018455,0.05983733402264,613.67285080458
0.61328125000001,0.063505769440395,0,63.494839935234,0.38585213712091,11.879162608092,1.0566640535785,701.97340879852,-0.0061330029473545,0.059866996012977,613.73321199525
0.61359375000001,0.063539113373843,0,63.494658204443,0.38586327888504,11.879032164727,1.0566948005094,702.04119375546,-0.0061366361948311,0.05989665716507,613.79353364989
0.61390625000001,0.063572458308973,0,63.494476494058,0.38587442071444,11.878901727207,1.0567255476923,702.10893340723,-0.0061402799927922,0.059926317478954,613.85381579375
0.61421875000001,0.063605804245792,0,63.49429480407,0.38588556260885,11.878771295536,1.0567562951271,702.17662777719,-0.0061439345531714,0.059955976954663,613.91405844391
0.61453125000001,0.063639151184298,0,63.572853291952,0.38589670456829,11.878640869719,1.0567870428136,702.24427691519,-0.0061475668403899,0.059985635592231,613.97426161678
0.61484375000001,0.063672499124487,0,63.651411800228,0.38590784659268,11.878510449758,1.0568177907516,702.31188085765,-0.0061511764934576,0.060015293391685,614.03442534838
0.61515625000001,0.063705848066364,0,63.651230171402,0.38591898868192,11.878380035658,1.0568485389411,702.37943959362,-0.0061548234836798,0.060044950353067,614.09454967576
0.61546875000001,0.063739198009926,0,63.65104856295,0.38593013083602,11.878249627422,1.0568792873818,702.44695317063,-0.0061584686111394,0.060074606476408,614.15463460741
0.61578125000001,0.063772548955173,0,63.650866974873,0.38594127305478,11.878119225053,1.0569100360735,702.51442164519,-0.006162083602229,0.060104261761739,614.2146801668
0.61609375000001,0.063805900902101,0,63.650685407155,0.38595241533833,11.877988828556,1.0569407850162,702.58184500188,-0.0061657288125162,0.060133916209096,614.27468639749
0.61640625000001,0.06383925385072,0,63.650503859791,0.38596355768646,11.877858437934,1.0569715342096,702.64922328705,-0.0061693730156066,0.060163569818514,614.33465330717
0.61671875000001,0.06387260780102,0,63.650322332787,0.38597470009931,11.87772805319,1.0570022836536,702.71655653456,-0.0061730230229248,0.060193222590022,614.39458093545
0.61703125000001,0.063905962753005,0,63.728880983608,0.38598584257665,11.877597674328,1.057033033348,702.78384479339,-0.0061766401537462,0.060222874523658,614.45446928624
0.61734375000001,0.063939318706674,0,63.72869949729,0.38599698511849,11.877467301352,1.0570637832926,702.8510880522,-0.006180290866326,0.060252525619454,614.51431841374
0.61765625000001,0.063972675662026,0,63.728518031305,0.38600812772468,11.877336934265,1.0570945334874,702.91828636471,-0.0061839284547753,0.060282175877444,614.57412831951
0.61796875000001,0.064006033619059,0,63.728336585657,0.38601927039515,11.877206573071,1.0571252839321,702.98543976877,-0.0061875517558219,0.060311825297657,614.63389903602
0.61828125000001,0.064039392577778,0,63.728155160327,0.38603041312996,11.877076217774,1.0571560346266,703.0525482713,-0.0061911851809825,0.060341473880134,614.69363059388
0.61859375000001,0.064072752538179,0,63.727973755323,0.3860415559292,11.876945868377,1.0571867855707,703.11961191525,-0.0061948214465696,0.060371121624903,614.75332301923
0.61890625000001,0.064106113500263,0,63.72779237062,0.38605269879249,11.876815524883,1.0572175367643,703.18663070925,-0.0061984689876588,0.060400768532004,614.81297632818
0.61921875000001,0.064139475464026,0,63.727611006232,0.3860638417198,11.876685187297,1.0572482882071,703.25360471441,-0.0062020960920993,0.060430414601464,614.8725905494
0.61953125000001,0.064172838429474,0,63.72742966214,0.38607498471114,11.876554855622,1.0572790398991,703.32053393099,-0.0062057385156946,0.06046005983332,614.93216570923
0.61984375000001,0.064206202396604,0,63.72724833835,0.38608612776667,11.876424529861,1.05730979184,703.38741840011,-0.0062093886577482,0.060489704227604,614.99170184114
0.62015625000001,0.064239567365415,0,63.727067034852,0.3860972708861,11.876294210017,1.0573405440298,703.4542581612,-0.0062130231454517,0.060519347784348,615.05119895774
0.62046875000001,0.064272933335906,0,63.726885751629,0.38610841406937,11.876163896096,1.0573712964682,703.52105324238,-0.0062166384816039,0.060548990503593,615.11065707882
0.62078125000001,0.064306300308079,0,63.726704488701,0.3861195573164,11.876033588099,1.0574020491551,703.58780366058,-0.0062202703386117,0.060578632385359,615.17007625258
0.62109375000001,0.064339668281934,0,63.726523246026,0.3861307006272,11.875903286031,1.0574328020904,703.65450941494,-0.0062239315135552,0.060608273429697,615.22945648781
0.62140625000001,0.06437303725747,0,63.805082181107,0.38614184400175,11.875772989895,1.0574635552738,703.72117059385,-0.0062275602448949,0.060637913636629,615.28879780667
0.62171875000001,0.064406407234684,0,63.804900978976,0.38615298743998,11.875642699695,1.0574943087052,703.78778720556,-0.0062311885281408,0.060667553006189,615.34810024661
0.62203125000001,0.064439778213579,0,63.804719797092,0.38616413094176,11.875512415433,1.0575250623845,703.85435925013,-0.0062348387042033,0.060697191538415,615.40736382579
0.62234375000001,0.064473150194154,0,63.80453863547,0.38617527450716,11.875382137115,1.0575558163115,703.92088681343,-0.0062384546387034,0.060726829233336,615.4665885694
0.62265625000001,0.064506523176409,0,63.804357494085,0.38618641813593,11.875251864743,1.057586570486,703.98736985266,-0.0062421154318787,0.060756466090991,615.52577451077
0.62296875000001,0.064539897160343,0,63.804176372937,0.38619756182832,11.87512159832,1.0576173249078,704.05380843593,-0.0062457715976219,0.060786102111409,615.58492166415
0.62328125000001,0.064573272145954,0,63.80399527203,0.38620870558384,11.874991337851,1.0576480795769,704.1202026161,-0.006249394256802,0.060815737294626,615.64403005301
0.62359375000001,0.064606648133245,0,63.803814191347,0.38621984940264,11.874861083338,1.0576788344931,704.18655238837,-0.0062530261601528,0.060845371640676,615.70309970579
0.62390625000001,0.064640025122218,0,63.803633130888,0.38623099328487,11.874730834785,1.0577095896561,704.25285777122,-0.0062566856408386,0.06087500514959,615.762130657
0.62421875000001,0.064673403112866,0,63.803452090647,0.38624213723008,11.874600592197,1.0577403450659,704.31911882873,-0.0062603187016961,0.060904637821401,615.82112291876
0.62453125000001,0.064706782105194,0,63.803271070617,0.38625328123859,11.874470355575,1.0577711007222,704.38533557678,-0.0062639478310961,0.060934269656147,615.88007651897
0.62484375000001,0.064740162099199,0,63.803090070797,0.38626442531015,11.874340124924,1.057801856625,704.4515080363,-0.0062675852655071,0.060963900653857,615.93899148927
0.62515625000001,0.064773543094881,0,63.960389406132,0.38627556944459,11.874209900248,1.057832612774,704.51763623328,-0.0062712273771836,0.060993530814571,615.99786784851
0.62546875000001,0.064806925092242,0,63.960208446699,0.38628671364213,11.874079681548,1.0578633691691,704.58372020551,-0.006274862519599,0.061023160138316,616.05670561902
0.62578125000001,0.06484030809128,0,63.960027507461,0.38629785790241,11.87394946883,1.0578941258102,704.64975997147,-0.0062785121115211,0.061052788625128,616.11550483651
0.62609375000001,0.064873692091997,0,63.959846588403,0.38630900222576,11.873819262096,1.057924882697,704.71575558003,-0.006282139331538,0.061082416275042,616.17426551091
0.62640625000001,0.064907077094386,0,63.959665689526,0.38632014661167,11.873689061351,1.0579556398295,704.78170700631,-0.0062858348908638,0.061112043088089,616.23298769698
0.62671875000001,0.064940463098455,0,64.038224968309,0.38633129106048,11.873558866597,1.0579863972074,704.84761441185,-0.0062893894383281,0.0611416690643,616.29167135944
0.62703125000001,0.064973850104198,0,64.11678426725,0.38634243557196,11.873428677838,1.0580171548306,704.91347765816,-0.0062930567436826,0.061171294203718,616.35031659223
0.62734375000001,0.06500723811162,0,64.116603428869,0.38635358014588,11.873298495077,1.058047912699,704.97929686312,-0.0062966981061714,0.061200918506371,616.4089233815
0.62765625000001,0.065040627120717,0,64.116422610647,0.38636472478244,11.873168318317,1.0580786708124,705.0450720549,-0.0063003214586202,0.061230541972292,616.46749175449
0.62796875000001,0.065074017131489,0,64.116241812583,0.38637586948154,11.873038147563,1.0581094291706,705.11080323433,-0.0063039724119861,0.061260164601514,616.52602175346
0.62828125000001,0.065107408143937,0,64.11606103465,0.38638701424298,11.872907982818,1.0581401877735,705.1764904489,-0.0063076027361821,0.061289786394075,616.58451337914
0.62859375000001,0.065140800158059,0,64.115880276871,0.38639815906692,11.872777824085,1.0581709466208,705.2421337364,-0.0063112232191802,0.061319407349999,616.64296667249
0.62890625000001,0.065174193173859,0,64.115699539218,0.38640930395314,11.951387828847,1.0582017057126,705.30773308587,-0.0063148789677183,0.061349027469332,616.70138166288
0.62921875000001,0.065207587191332,0,64.115518821695,0.38642044890164,11.951257682148,1.0582324650485,705.37328855828,-0.006318521030973,0.061378646752098,616.75975836228
0.62953125000001,0.06524098221048,0,64.115338124299,0.38643159391225,11.951127541471,1.0582632246285,705.43880015462,-0.006322197964418,0.061408265198335,616.81809680915
0.62984375000001,0.065274378231303,0,64.193897604497,0.38644273898514,11.95099740682,1.0582939844524,705.50426795275,-0.006325822533083,0.061437882808077,616.87639700486
0.63015625000001,0.065307775253798,0,64.193716947329,0.38645388412004,11.950867278198,1.0583247445199,705.5696919401,-0.0063294690597191,0.061467499581353,616.93465899336
0.63046875000001,0.06534117327797,0,64.193536310267,0.386465029317,11.950737155609,1.0583555048311,705.63507217138,-0.0063330933102539,0.061497115518204,616.99288278652
0.63078125000001,0.065374572303814,0,64.272095850783,0.38647617457599,11.950607039055,1.0583862653857,705.70040864842,-0.0063367322143598,0.061526730618659,617.05106841814
0.63109375000001,0.065407972331331,0,64.350655411396,0.38648731989697,11.950476928541,1.0584170261835,705.76570142303,-0.0063403584097463,0.061556344882751,617.10921591419
0.63140625000001,0.065441373360522,0,64.350474834619,0.38649846527965,11.950346824069,1.0584477872244,705.83095049533,-0.0063440089615567,0.061585958310515,617.16732530127
0.63171875000001,0.065474775391385,0,64.429034435409,0.38650961072417,11.950216725643,1.0584785485083,705.89615591188,-0.0063476584935564,0.061615570901984,617.2253965994
0.63203125000001,0.065508178423924,0,64.428853898796,0.38652075623051,11.950086633266,1.0585093100349,705.96131769201,-0.0063513170408935,0.061645182657193,617.28342983516
0.63234375000001,0.065541582458133,0,64.428673382259,0.38653190179844,11.949956546942,1.0585400718042,706.02643588684,-0.0063549574194457,0.061674793576173,617.34142502658
0.63265625000001,0.065574987494016,0,64.428492885787,0.38654304742832,11.949826466675,1.0585708338159,706.09151050603,-0.0063585952459416,0.061704403658961,617.39938219864
0.63296875000001,0.065608393531569,0,64.428312409378,0.38655419311958,11.949696392466,1.05860159607,706.15654159656,-0.0063622140376905,0.06173401290559,617.45730137653
0.63328125000001,0.065641800570797,0,64.428131953025,0.3865653388722,11.94956632432,1.0586323585662,706.22152913897,-0.0063658860675343,0.061763621316093,617.51518260449
0.63359375000001,0.065675208611695,0,64.427951516729,0.38657648468653,11.949436262241,1.0586631213044,706.2864732242,-0.006369507454861,0.061793228890497,617.57302587512
0.63390625000001,0.065708617654265,0,64.427771100476,0.38658763056213,11.949306206231,1.0586938842844,706.35137381976,-0.0063731718506303,0.061822835628846,617.63083124024
0.63421875000001,0.065742027698508,0,64.427590704264,0.38659877649925,11.949176156293,1.0587246475062,706.41623101009,-0.006376800627355,0.06185244153117,617.68859870161
0.63453125000001,0.06577543874442,0,64.427410328089,0.38660992249756,11.949046112432,1.0587554109694,706.48104479376,-0.006380435865363,0.0618820465975,617.74632830003
0.63484375000001,0.065808850792006,0,64.427229971945,0.38662106855728,11.94891607465,1.058786174674,706.54581520229,-0.0063840676081892,0.061911650827871,617.80402004923
0.63515625000001,0.065842263841262,0,64.427049635829,0.38663221467783,11.948786042951,1.0588169386199,706.61054225443,-0.0063877210858057,0.061941254222315,617.86167399077
0.63546875000001,0.065875677892185,0,64.426869319729,0.38664336085967,11.948656017338,1.0588477028068,706.67522598409,-0.0063913788340687,0.061970856780872,617.91929013615
0.63578125000001,0.065909092944783,0,64.42668902364,0.38665450710283,11.948525997814,1.0588784672346,706.7398664477,-0.0063949951560425,0.06200045850357,617.97686849892
0.63609375000001,0.06594250899905,0,64.42650874756,0.38666565340681,11.948395984383,1.0589092319032,706.80446362753,-0.0063986498079607,0.062030059390443,618.03440912663
0.63640625000001,0.065975926054985,0,64.426328491493,0.38667679977182,11.948265977048,1.0589399968123,706.86901758567,-0.0064022888503761,0.062059659441523,618.09191203281
0.63671875000001,0.066009344112594,0,64.504888412886,0.38668794619774,11.948135975812,1.058970761962,706.93352830218,-0.0064059662758091,0.062089258656854,618.1493772433
0.63703125000001,0.066042763171869,0,64.504708196807,0.3866990926845,11.948005980679,1.0590015273518,706.99799590058,-0.006409567387521,0.062118857036453,618.20680476794
0.63734375000001,0.066076183232815,0,64.504528000707,0.38671023923196,11.947875991652,1.0590322929818,707.06242030469,-0.0064132266120406,0.062148454580368,618.2641946536
0.63765625000001,0.066109604295431,0,64.504347824595,0.38672138584019,11.947746008733,1.0590630588518,707.12680160989,-0.006416855879658,0.062178051288623,618.32154691144
0.63796875000001,0.066143026359716,0,64.504167668453,0.38673253250913,11.947616031927,1.0590938249616,707.19113980613,-0.006420512159213,0.062207647161258,618.37886158074
0.63828125000001,0.066176449425668,0,64.503987532293,0.38674367923886,11.947486061237,1.0591245913111,707.25543494589,-0.0064241481900285,0.0622372421983,618.43613866421
0.63859375000001,0.066209873493107,0,64.503807416274,0.38675482602894,11.947356096655,1.0591553579,707.31968738858,-0.0064269466600514,0.062266836399573,618.49337780689
0.63890625000001,0.066243298562563,0,64.582367477347,0.38676597287958,11.947226138206,1.0591861247283,707.3838961196,-0.0064314451844513,0.062296429765742,618.55058020673
0.63921875000001,0.066276724633522,0,64.582187401061,0.3867771197908,12.025836343363,1.0592168917959,707.44806221397,-0.0064351052716286,0.062326022296222,618.60774471689
0.63953125000001,0.06631015170615,0,64.582007344724,0.38678826676234,12.025706397169,1.0592476591024,707.51218537178,-0.0064387379975478,0.062355613991246,618.66487174229
0.63984375000001,0.066343579780447,0,64.581827308331,0.38679941379431,12.025576457106,1.0592784266479,707.5762655784,-0.0064424014364611,0.06238520485085,618.72196131693
0.64015625000001,0.066377008856409,0,64.660387449357,0.38681056088652,12.025446523178,1.059309194432,707.64030292787,-0.0064460079524755,0.062414794875066,618.7790134493
0.64046875000001,0.06641043893404,0,64.660207452835,0.38682170803898,12.025316595389,1.0593399624548,707.70429738568,-0.0064496469053551,0.062444384063928,618.83602818368
0.64078125000001,0.066443870013338,0,64.66002747624,0.38683285525182,12.025186673741,1.059370730716,707.76824899149,-0.0064532939189946,0.062473972417471,618.89300553763
0.64109375000001,0.066477302094304,0,64.738587677053,0.38684400252456,12.103796915719,1.0594014992154,707.83215777885,-0.0064569525700549,0.062503559935726,618.94994554119
0.64140625000001,0.066510735176936,0,64.738407740305,0.38685514985738,12.103667006365,1.059432267953,707.89602379391,-0.0064605892681019,0.062533146618726,619.00684820463
0.64171875000001,0.066544169261236,0,64.816967980943,0.3868662972503,12.103537103161,1.0594630369285,707.95984701773,-0.0064642694972248,0.062562732466513,619.06371357051
0.64203125000001,0.066577604347203,0,64.816788084013,0.38687744470306,12.103407206113,1.0594938061418,708.02362754818,-0.0064678896087971,0.062592317479108,619.12054162966
0.64234375000001,0.066611040434834,0,64.816608206983,0.38688859221596,12.103277315222,1.0595245755928,708.08736535493,-0.0064715417805634,0.062621901656551,619.17733244353
0.64265625000001,0.066644477524136,0,64.895168507332,0.3868997397885,12.103147430492,1.0595553452813,708.1510604909,-0.0064751856519737,0.062651484998875,619.23408601468
0.64296875000001,0.066677915615101,0,64.894988670088,0.38691088742099,12.103017551926,1.0595861152071,708.21471297608,-0.0064788376792782,0.062681067506119,619.29080238199
0.64328125000001,0.066711354707733,0,64.894808852734,0.38692203511324,12.102887679528,1.0596168853701,708.27832285294,-0.0064824634874607,0.062710649178306,619.34748154487
0.64359375000001,0.066744794802029,0,64.973369212735,0.38693318286517,12.1027578133,1.0596476557701,708.34189012267,-0.0064861127562598,0.062740230015479,619.40412355293
0.64390625000001,0.066778235897993,0,64.973189435132,0.38694433067652,12.102627953246,1.0596784264071,708.40541481992,-0.0064897710588014,0.062769810017667,619.46072842332
0.64421875000001,0.066811677995623,0,65.051749834877,0.38695547854754,12.181238256849,1.0597091972807,708.46889699022,-0.0064934028154691,0.062799389184906,619.51729616103
0.64453125000001,0.066845121094919,0,65.051570097014,0.38696662647828,12.181108409151,1.059739968391,708.53233664742,-0.006497050701951,0.062828967517223,619.57382682074
0.64484375000001,0.066878565195876,0,65.051390379006,0.38697777446841,12.180978567637,1.0597707397376,708.59573382053,-0.0065006952699415,0.06285854501466,619.63032040779
0.64515625000001,0.0669120102985,0,65.051210680857,0.38698892251788,12.18084873231,1.0598015113206,708.65908853619,-0.0065043466849935,0.062888121677246,619.68677695412
0.64546875000001,0.066945456402788,0,65.051031002556,0.38700007062683,12.180718903172,1.0598322831396,708.72240080976,-0.0065080195207403,0.062917697505015,619.74319648491
0.64578125000001,0.066978903508741,0,65.050851344094,0.38701121879497,12.180589080227,1.0598630551946,708.78567070004,-0.0065116629254158,0.062947272498003,619.79957900881
0.64609375000001,0.067012351616362,0,65.050671705477,0.38702236702246,12.180459263478,1.0598938274854,708.84889823624,-0.0065152862388687,0.062976846656241,619.85592455765
0.64640625000001,0.067045800725646,0,65.050492086687,0.38703351530903,12.180329452928,1.0599246000119,708.91208342662,-0.0065188994555988,0.063006419979764,619.91223315057
0.64671875000001,0.067079250836592,0,65.050312487723,0.38704466365494,12.18019964858,1.0599553727739,708.97522625356,-0.0065225884656318,0.063035992468607,619.96850484253
0.64703125000001,0.067112701949201,0,64.97139275111,0.38705581205985,12.180069850437,1.0599861457712,709.03832682973,-0.0065262185232133,0.063065564122797,620.0247396166
0.64734375000001,0.067146154063478,0,64.971213191788,0.38706696052372,12.179940058503,1.0600169190038,709.10138512691,-0.006529870428513,0.063095134942377,620.08093751847
0.64765625000001,0.067179607179416,0,64.971033652284,0.38707810904651,12.179810272781,1.0600476924714,709.16440118805,-0.0065335220523921,0.063124704927372,620.13709856757
0.64796875000001,0.067213061297017,0,64.970854132584,0.38708925762853,12.179680493273,1.0600784661738,709.22737504985,-0.0065371590873418,0.063154274077822,620.19322278028
0.64828125000001,0.067246516416282,0,65.049414790167,0.38710040626912,12.179550719983,1.0601092401111,709.2903067304,-0.0065408043223659,0.063183842393758,620.24931019515
0.64859375000001,0.06727997253721,0,65.049235310067,0.38711155496873,12.179420952915,1.0601400142829,709.35319623986,-0.0065444749676235,0.063213409875212,620.3053608322
0.64890625000001,0.067313429659803,0,65.049055849758,0.38712270372688,12.17929119207,1.0601707886891,709.41604365133,-0.0065481004647053,0.06324297652222,620.36137469743
0.64921875000001,0.067346887784058,0,65.127616566714,0.38713385254377,12.179161437453,1.0602015633297,709.47884893118,-0.0065517762891584,0.063272542334817,620.41735184315
0.64953125000001,0.067380346909975,0,65.12743714597,0.38714500141954,12.179031689066,1.0602323382043,709.54161216684,-0.0065554080898153,0.063302107313032,620.47329226508
0.64984375000001,0.067413807037555,0,65.127257745009,0.38715615035381,12.178901946912,1.060263113313,709.60433336178,-0.0065590399833674,0.0633316714569,620.52919600156
0.65015625000001,0.067447268166812,0,65.127078363754,0.38716729934661,12.178772210997,1.0602938886556,709.66701191674,-0.0065636266425636,0.063361234766353,620.58506335735
0.65046875000001,0.067480730297704,0,65.126899002372,0.38717844839783,12.17864248132,1.0603246642317,709.72964968698,-0.0065663402620759,0.063390797241735,620.64089350121
0.65078125000001,0.06751419343028,0,65.126719660662,0.38718959750768,12.178512757887,1.0603554400415,709.79224454445,-0.0065705394375804,0.063420358882702,620.69668748964
0.65109375000001,0.0675476575645,0,65.205280496262,0.3872007466757,12.178383040698,1.0603862160846,709.85479816515,-0.0065736519736066,0.063449919689587,620.75244455244
0.65140625000001,0.067581122700389,0,65.205101194096,0.38721189590208,12.178253329758,1.0604169923608,709.91730954411,-0.0065772954104028,0.063479479662235,620.80816521514
0.65171875000001,0.067614588837942,0,65.20492191168,0.38722304518681,12.17812362507,1.0604477688702,709.97977905001,-0.0065809289516315,0.063509038800732,620.86384933127
0.65203125000001,0.067648055977157,0,65.204742648997,0.38723419452976,12.177993926637,1.0604785456125,710.04220665994,-0.0065846171942968,0.063538597105122,620.91949693436
0.65234375000001,0.067681524118031,0,65.20456340605,0.38724534393079,12.177864234462,1.0605093225875,710.10459248299,-0.0065882518757973,0.063568154575436,620.97510802863
0.65265625000001,0.067714993260566,0,65.204384182838,0.3872564933901,12.177734548548,1.0605400997952,710.16693650469,-0.0065918944139179,0.063597711211703,621.03068265416
0.65296875000001,0.067748463404764,0,65.282945136824,0.38726764290738,12.177604868899,1.0605708772353,710.22923875121,-0.0065955384360557,0.063627267013963,621.08622082698
0.65328125000001,0.067781934550621,0,65.282765953044,0.38727879248275,12.177475195516,1.0606016549078,710.29149923767,-0.0065991997477432,0.063656821982249,621.14172257617
0.65359375000001,0.06781540669814,0,65.361326946478,0.38728994211602,12.177345528405,1.0606324328124,710.3537180334,-0.0066028329875204,0.063686376116584,621.19718791825
0.65390625000001,0.067848879847318,0,65.36114780212,0.38730109180725,12.177215867566,1.060663210949,710.41589513652,-0.0066064610980235,0.063715929417018,621.25261687767
0.65421875000001,0.067882353998159,0,65.360968677477,0.38731224155627,12.177086213004,1.0606939893175,710.47803054608,-0.0066101334535588,0.06374548188357,621.30800949161
0.65453125000001,0.067915829150659,0,65.360789572533,0.38732339136312,12.176956564721,1.0607247679178,710.54012433503,-0.0066137916024095,0.063775033516283,621.36336577302
0.65484375000001,0.067949305304819,0,65.360610487281,0.38733454122761,12.176826922721,1.0607555467495,710.60217653974,-0.0066174114076431,0.063804584315187,621.4186857374
0.65515625000001,0.067982782460639,0,65.360431421713,0.3873456911499,12.176697287006,1.0607863258127,710.66418713234,-0.0066210636763352,0.063834134280316,621.47396941602
0.65546875000002,0.068016260618119,0,65.360252375835,0.38735684112967,12.17656765758,1.0608171051072,710.72615616458,-0.0066247339601032,0.063863683411704,621.5292168423
0.65578125000002,0.068049739777261,0,65.360073349632,0.38736799116716,12.176438034446,1.0608478846328,710.78808368114,-0.0066283818929,0.063893231709384,621.58442802543
0.65609375000002,0.068083219938061,0,65.359894343099,0.38737914126211,12.255048575086,1.0608786643893,710.84996969163,-0.0066320352853469,0.063922779173392,621.63960299233
0.65640625000002,0.068116701100519,0,65.438455513721,0.3873902914147,12.254918964543,1.0609094443767,710.91181422849,-0.0066356960957916,0.063952325803758,621.69474177165
0.65671875000002,0.068150183264641,0,65.438276546517,0.38740144162455,12.254789360302,1.0609402245947,710.97361731958,-0.0066393425171749,0.063981871600518,621.74984437457
0.65703125000002,0.068183666430416,0,65.438097598979,0.38741259189184,12.254659762364,1.0609710050432,711.03537899517,-0.0066429929751748,0.064011416563701,621.8049108396
0.65734375000002,0.068217150597849,0,65.437918671092,0.38742374221647,12.254530170732,1.0610017857221,711.09709926239,-0.0066466609310917,0.064040960693348,621.85994118689
0.65765625000002,0.068250635766959,0,65.43773976289,0.38743489259824,12.254400585412,1.0610325666312,711.15877841974,-0.0066499918355024,0.064070503989449,621.91493536102
0.65796875000002,0.0682841219377,0,65.43756087425,0.38744604303732,12.254271006403,1.0610633477703,711.22041577942,-0.0066539209002475,0.064100046452156,621.96989359058
0.65828125000002,0.068317609110114,0,65.516122162771,0.3874571935336,12.25414143371,1.0610941291394,711.28201203548,-0.0066575768398993,0.064129588081384,622.02481570937
0.65859375000002,0.068351097284187,0,65.594683470915,0.3874683440868,12.254011867334,1.0611249107383,711.34356698765,-0.0066612499695828,0.064159128877211,622.07970179963
0.65890625000002,0.068384586459917,0,65.594504641216,0.38747949469721,12.25388230728,1.0611556925668,711.40508071176,-0.0066648849709718,0.064188668839664,622.13455187957
0.65921875000002,0.068418076637307,0,65.594325831139,0.38749064536467,12.253752753551,1.0611864746247,711.46655317802,-0.0066685543633491,0.064218207968777,622.18936598637
0.65953125000002,0.068451567816355,0,65.594147040676,0.38750179608904,12.253623206149,1.061217256912,711.52798445771,-0.0066721941809285,0.064247746264587,622.24414412427
0.65984375000002,0.06848505999706,0,65.593968269823,0.3875129468702,12.253493665078,1.0612480394284,711.58937454395,-0.0066758576475385,0.064277283727127,622.298886335
0.66015625000002,0.06851855317942,0,65.672529676065,0.38752409770824,12.25336413034,1.0612788221738,711.65072347649,-0.0066795260853064,0.064306820356429,622.35359263998
0.66046875000002,0.068552047363442,0,65.672350944425,0.38753524860308,12.253234601938,1.0613096051482,711.71203130322,-0.0066831553260789,0.064336356152526,622.40826303871
0.66078125000002,0.068585542549121,0,65.672172232378,0.38754639955473,12.253105079876,1.0613403883512,711.77329804333,-0.0066867714789561,0.064365891115456,622.46289757034
0.66109375000002,0.068619038736458,0,65.671993539926,0.38755755056301,12.252975564155,1.0613711717828,711.8345236584,-0.0066904661839915,0.064395425245247,622.51749628421
0.66140625000002,0.068652535925454,0,65.67181486706,0.38756870162789,12.25284605478,1.0614019554429,711.89570827367,-0.0066940954401349,0.064424958541937,622.57205915798
0.66171875000002,0.068686034116102,0,65.671636213782,0.38757985274932,12.252716551753,1.0614327393312,711.95685184742,-0.0066977548676724,0.064454491005555,622.62658624771
0.66203125000002,0.06871953330841,0,65.828937895038,0.38759100392745,12.252587055078,1.0614635234476,712.01795442626,-0.0067014234072712,0.064484022636139,622.68107756691
0.66234375000002,0.068753033502376,0,65.8287592809,0.38760215516189,12.252457564755,1.061494307792,712.07901605257,-0.006705062940764,0.064513553433723,622.73553312457
0.66265625000002,0.068786534697998,0,65.828580686339,0.38761330645263,12.252328080791,1.0615250923643,712.14003675081,-0.0067086953134907,0.064543083398333,622.78995296019
0.66296875000002,0.068820036895277,0,65.828402111332,0.38762445780012,12.252198603185,1.0615558771642,712.20101650059,-0.0067123790340765,0.064572612530013,622.84433710439
0.66328125000002,0.068853540094213,0,65.985703870843,0.3876356092037,12.252069131943,1.0615866621917,712.26195539522,-0.0067160136208319,0.064602140828791,622.89868555543
0.66359375000002,0.068887044294806,0,65.985525334946,0.38764676066351,12.251939667066,1.0616174474466,712.32285340757,-0.0067196778505741,0.064631668294701,622.95299835269
0.66390625000002,0.068920549497056,0,65.906606661117,0.38765791217959,12.251810208558,1.0616482329287,712.38371060383,-0.0067233272319555,0.064661194927776,623.00727551824
0.66421875000002,0.068954055700962,0,65.906428164308,0.38766906375166,12.251680756421,1.0616790186378,712.44452699071,-0.0067269733005552,0.064690720728053,623.0615170695
0.66453125000002,0.068987562906522,0,65.906249687043,0.38768021538004,12.251551310658,1.061709804574,712.50530259186,-0.0067306366641374,0.064720245695558,623.11572303981
0.66484375000002,0.06902107111374,0,65.906071229303,0.38769136706444,12.251421871273,1.0617405907369,712.56603746292,-0.0067342581747645,0.064749769830333,623.16989343165
0.66515625000002,0.069054580322615,0,65.905892791095,0.38770251880498,12.251292438268,1.0617713771265,712.62673156467,-0.0067379487770967,0.064779293132408,623.22402830458
0.66546875000002,0.069088090533146,0,65.9057143724,0.38771367060125,12.251163011646,1.0618021637426,712.68738498321,-0.0067416006373752,0.064808815601819,623.27812763879
0.66578125000002,0.069121601745332,0,65.905535973232,0.38772482245372,12.25103359141,1.061832950585,712.74799774698,-0.0067452354897913,0.064838337238593,623.33219148158
0.66609375000002,0.069155113959173,0,65.905357593572,0.38773597436159,12.250904177562,1.0618637376536,712.80856982965,-0.0067489175981223,0.064867858042771,623.38621986099
0.66640625000002,0.069188627174672,0,65.905179233419,0.38774712632558,12.250774770107,1.0618945249483,712.86910133531,-0.006752535659042,0.064897378014381,623.44021277516
0.66671875000002,0.069222141391822,0,65.983741050254,0.3877582783453,12.250645369046,1.0619253124689,712.9295922084,-0.0067562142244706,0.064926897153461,623.49417028365
0.66703125000002,0.06925565661063,0,65.983562729099,0.38776943042042,12.250515974382,1.0619561002153,712.9900425054,-0.0067598957870403,0.064956415460042,623.54809238278
0.66734375000002,0.069289172831091,0,65.983384427435,0.38778058255157,12.250386586119,1.0619868881873,713.05045228799,-0.0067635368684108,0.064985932934161,623.60197908887
0.66765625000002,0.069322690053213,0,65.983206145264,0.38779173473807,12.250257204259,1.0620176763848,713.11082155495,-0.0067671797561756,0.065015449575846,623.65583043994
0.66796875000002,0.069356208276988,0,65.983027882573,0.38780288698017,12.250127828805,1.0620484648076,713.1711503135,-0.0067708479177871,0.065044965385136,623.70964646043
0.66828125000002,0.069389727502414,0,65.982849639363,0.38781403927794,12.249998459759,1.0620792534555,713.23143865456,-0.0067744551904293,0.065074480362058,623.76342715653
0.66859375000002,0.0694232477295,0,65.982671415618,0.38782519163092,12.249869097126,1.0621100423285,713.29168649857,-0.0067781455480991,0.065103994506655,623.81717258371
0.66890625000002,0.069456768958237,0,65.982493211342,0.38783634403938,12.328479898387,1.0621408314264,713.35189397211,-0.006781777296053,0.065133507818954,623.8708827287
0.66921875000002,0.069490291188628,0,65.982315026537,0.3878474965031,12.328350548586,1.062171620749,713.41206102112,-0.0067854759631434,0.065163020298988,623.92455764969
0.66953125000002,0.069523814420678,0,65.98213686118,0.38785864902212,12.328221205204,1.0622024102962,713.47218775298,-0.006789104979512,0.065192531946796,623.97819732901
0.66984375000002,0.069557338654379,0,65.981958715283,0.38786980159642,12.406832025726,1.0622332000678,713.53227415056,-0.0067927360327011,0.065222042762404,624.03180180721
0.67015625000002,0.069590863889736,0,65.981780588827,0.38788095422585,12.406702695194,1.0622639900638,713.59232021148,-0.0067964196473524,0.065251552745853,624.08537112932
0.67046875000002,0.069624390126745,0,66.21782295426,0.38789210691037,12.40657337109,1.0622947802839,713.65232602564,-0.006800053398215,0.065281061897171,624.13890528573
0.67078125000002,0.069657917365409,0,66.29638502417,0.38790325965004,12.406444053418,1.062325570728,713.71229155465,-0.0068037338705793,0.065310570216396,624.19240432388
0.67109375000002,0.06969144560573,0,66.29620695603,0.38791441244481,12.40631474218,1.062356361396,713.77221687859,-0.0068073795516166,0.06534007770356,624.24586824444
0.67140625000002,0.069724974847701,0,66.296028907328,0.38792556529438,12.406185437379,1.0623871522877,713.83210199754,-0.006811040039904,0.065369584358691,624.2992970911
0.67171875000002,0.069758505091331,0,66.295850878035,0.38793671819898,12.406056139018,1.0624179434029,713.89194692722,-0.0068147057515538,0.065399090181833,624.35269086713
0.67203125000002,0.06979203633661,0,66.295672868168,0.38794787115844,12.4059268471,1.0624487347416,713.9517517434,-0.0068183299252292,0.065428595173013,624.40604959912
0.67234375000002,0.069825568583547,0,66.29549487772,0.38795902417269,12.405797561628,1.0624795263036,714.01151638958,-0.0068220233886781,0.065458099332261,624.45937333505
0.67265625000002,0.069859101832136,0,66.295316906673,0.38797017724175,12.405668282604,1.0625103180886,714.07124096314,-0.0068256764523735,0.065487602659624,624.5126620618
0.67296875000002,0.069892636082375,0,66.295138955039,0.38798133036544,12.405539010031,1.0625411100967,714.13092547965,-0.0068293205049382,0.065517105155118,624.56591582424
0.67328125000002,0.069926171334271,0,66.294961022787,0.38799248354381,12.405409743912,1.0625719023276,714.19056992787,-0.0068329829811807,0.065546606818795,624.61913463219
0.67359375000002,0.06995970758782,0,66.294783109945,0.38800363677693,12.40528048425,1.0626026947813,714.25017436587,-0.0068366412687838,0.065576107650673,624.67231851755
0.67390625000002,0.069993244843023,0,66.294605216484,0.38801479006448,12.405151231048,1.0626334874574,714.3097388093,-0.0068402969622968,0.065605607650794,624.72546750072
0.67421875000002,0.070026783099875,0,66.294427342411,0.38802594340673,12.405021984307,1.062664280356,714.3692632933,-0.0068439531803973,0.06563510681919,624.7785816052
0.67453125000002,0.070060322358384,0,66.294249487718,0.38803709680321,12.404892744032,1.0626950734768,714.42874783979,-0.0068475936604226,0.065664605155893,624.83166084373
0.67484375000002,0.070093862618546,0,66.294071652399,0.38804825025413,12.404763510225,1.0627258668198,714.48819244156,-0.0068512868379403,0.065694102660937,624.8847052647
0.67515625000002,0.070127403880361,0,66.293893836452,0.38805940375951,12.404634282888,1.0627566603847,714.54759719055,-0.006854922511599,0.065723599334357,624.93771485717
0.67546875000002,0.070160946143828,0,66.372456197347,0.38807055731919,12.404505062025,1.0627874541714,714.60696206401,-0.0068585772509721,0.065753095176185,624.99068966547
0.67578125000002,0.070194489408948,0,66.372278420119,0.38808171093326,12.404375847637,1.0628182481799,714.66628707243,-0.0068622675303102,0.065782590186457,625.04362970917
0.67609375000002,0.070228033675719,0,66.372100662255,0.38809286460134,12.404246639729,1.0628490424099,714.72557231919,-0.0068658965538584,0.065812084365204,625.09653500033
0.67640625000002,0.070261578944146,0,66.450663081214,0.38810401832357,12.404117438302,1.0628798368612,714.78481774511,-0.0068695632518054,0.065841577712462,625.14940557106
0.67671875000002,0.070295125214225,0,66.450485362044,0.38811517209999,12.40398824336,1.0629106315338,714.84402342912,-0.0068732128430163,0.06587107022826,625.20224143977
0.67703125000002,0.070328672485954,0,66.450307662212,0.38812632593049,12.403859054904,1.0629414264275,714.90318936855,-0.0068768774729764,0.065900561912638,625.25504263687
0.67734375000002,0.070362220759338,0,66.450129981718,0.38813747981501,12.403729872939,1.0629722215422,714.96231561269,-0.0068805206676979,0.065930052765624,625.30780917096
0.67765625000002,0.070395770034371,0,66.449952320556,0.3881486337534,12.403600697466,1.0630030168777,715.02140215541,-0.0068841982567259,0.065959542787254,625.36054108439
0.67796875000002,0.070429320311057,0,66.528514836194,0.38815978774586,12.403471528488,1.0630338124339,715.08044906893,-0.00688782926341,0.065989031977565,625.41323837231
0.67828125000002,0.0704628715894,0,66.528337213675,0.3881709417919,12.403342366009,1.0630646082106,715.13945630927,-0.0068915213605714,0.066018520336585,625.46590108806
0.67859375000002,0.070496423869392,0,66.528159610478,0.38818209589193,12.40321321003,1.0630954042076,715.19842397564,-0.0068951768278464,0.066048007864348,625.51852923118
0.67890625000002,0.070529977151035,0,66.685462341555,0.38819325004575,12.403084060555,1.063126200425,715.257352068,-0.0068988201317569,0.066077494560889,625.57112282989
0.67921875000002,0.07056353143433,0,66.685284776978,0.38820440425314,12.402954917585,1.0631569968624,715.31624057772,-0.0069025097885858,0.066106980426244,625.6236819181
0.67953125000002,0.07059708671928,0,66.685107231703,0.3882155585144,12.402825781125,1.0631877935197,715.37508959706,-0.0069061409236072,0.066136465460443,625.67620649134
0.67984375000002,0.070630643005877,0,66.684929705721,0.38822671282907,12.402696651177,1.0632185903969,715.43389909345,-0.0069098011156522,0.066165949663524,625.72869659493
0.68015625000002,0.070664200294127,0,66.684752199033,0.38823786719731,12.402567527742,1.0632493874938,715.49266911178,-0.0069134677914813,0.066195433035517,625.78115225019
0.68046875000002,0.07069775858403,0,66.684574711637,0.3882490216192,12.402438410825,1.0632801848101,715.55139967347,-0.0069171438745872,0.066224915576453,625.83357347657
0.68078125000002,0.070731317875588,0,66.684397243522,0.38826017609451,12.481049457908,1.0633109823459,715.6100908335,-0.0069207816828645,0.06625439728637,625.88596028119
0.68109375000002,0.070764878168792,0,66.684219794684,0.38827133062314,12.480920354033,1.0633417801008,715.66874256238,-0.0069244682249731,0.066283878165301,625.93831271351
0.68140625000002,0.07079843946365,0,66.762782522597,0.38828248520517,12.480791256682,1.0633725780749,715.72735493554,-0.0069281233183234,0.066313358213283,625.99063076951
0.68171875000002,0.070832001760159,0,66.762605112304,0.38829363984053,12.48066216586,1.063403376268,715.78592796095,-0.0069317833790774,0.066342837430341,626.04291448852
0.68203125000002,0.07086556505832,0,66.762427721281,0.3883047945291,12.480533081568,1.0634341746798,715.84446168443,-0.0069354129587775,0.066372315816511,626.09516388017
0.68234375000002,0.07089912935813,0,66.762250349511,0.38831594927086,12.480404003809,1.0634649733103,715.90295607912,-0.0069390897272685,0.066401793371833,626.14737898829
0.68265625000002,0.070932694659594,0,66.762072996994,0.38832710406596,12.480274932586,1.0634957721593,715.96141119272,-0.006942774938176,0.066431270096336,626.19955981742
0.68296875000002,0.070966260962708,0,66.76189566373,0.38833825891382,12.480145867902,1.0635265712267,716.01982709191,-0.0069464195131043,0.066460745990052,626.25170638755
0.68328125000002,0.070999828267472,0,66.761718349711,0.38834941381501,12.480016809758,1.0635573705123,716.07820375373,-0.0069500897679081,0.066490221053019,626.30381873266
0.68359375000002,0.071033396573889,0,66.761541054934,0.38836056876921,12.479887758159,1.0635881700161,716.13654122915,-0.0069537337187692,0.066519695285264,626.35589685584
0.68390625000002,0.071066965881956,0,66.761363779391,0.38837172377625,12.479758713106,1.0636189697377,716.1948395293,-0.0069574028822536,0.066549168686828,626.40794080681
0.68421875000002,0.071100536191675,0,66.761186523078,0.38838287883626,12.479629674602,1.0636497696772,716.25309866236,-0.0069610909269263,0.066578641257742,626.45995059191
0.68453125000002,0.071134107503043,0,66.761009285991,0.38839403394921,12.479500642649,1.0636805698344,716.31131873003,-0.006964709136905,0.066608112998038,626.51192621807
0.68484375000002,0.071167679816063,0,66.839572225604,0.38840518911481,12.479371617251,1.0637113702091,716.36949967196,-0.0069683760981545,0.066637583907752,626.56386774198
0.68515625000002,0.071201253130735,0,66.839395026961,0.38841634433321,12.47924259841,1.0637421708011,716.4276415389,-0.0069720482739894,0.066667053986913,626.61577516113
0.68546875000002,0.071234827447056,0,66.917958005006,0.38842749960437,12.479113586129,1.0637729716104,716.48574438626,-0.0069756922993185,0.066696523235559,626.66764850319
0.68578125000002,0.071268402765025,0,66.917780844783,0.38843865492814,12.47898458041,1.0638037726368,716.54380817982,-0.0069793885845321,0.06672599165372,626.71948780267
0.68609375000002,0.071301979084651,0,66.996343861237,0.38844981030456,12.478855581256,1.0638345738802,716.60183300144,-0.0069830495886427,0.066755459241434,626.77129305865
0.68640625000002,0.071335556405923,0,67.074906896893,0.38846096573358,12.47872658867,1.0638653753404,716.65981886431,-0.0069867054548524,0.066784925998732,626.82306430712
0.68671875000002,0.071369134728847,0,67.153469951742,0.38847212121515,12.478597602654,1.0638961770172,716.71776577919,-0.0069903661387151,0.066814391925646,626.8748015655
0.68703125000002,0.071402714053421,0,67.153292868294,0.38848327674911,12.478468623211,1.0639269789106,716.77567376517,-0.0069940449115975,0.066843857022219,626.9265048623
0.68734375000002,0.071436294379646,0,67.153115804034,0.38849443233545,12.478339650343,1.0639577810204,716.83354289381,-0.0069976773404993,0.06687332128847,626.97817420342
0.68765625000002,0.07146987570752,0,67.152938758955,0.38850558797425,12.478210684053,1.0639885833464,716.89137310876,-0.0070013846312152,0.066902784724442,627.02980964563
0.68796875000002,0.071503458037046,0,67.15276173305,0.38851674366524,12.478081724344,1.0640193858885,716.94916452678,-0.0070050245502169,0.066932247330165,627.08141116833
0.68828125000002,0.07153704136822,0,67.152584726315,0.38852789940856,12.477952771218,1.0640501886466,717.0069171173,-0.007008682258291,0.066961709105674,627.13297881569
0.68859375000002,0.071570625701047,0,67.152407738742,0.38853905520416,12.477823824678,1.0640809916205,717.06463091236,-0.0070123525439913,0.066991170051006,627.18451261468
0.68890625000002,0.071604211035523,0,67.230970927813,0.38855021105187,12.477694884726,1.0641117948101,717.1223059441,-0.0070160194796169,0.067020630166188,627.23601257725
0.68921875000002,0.071637797371649,0,67.388274293515,0.3885613669517,12.477565951366,1.0641425982153,717.17994225139,-0.0070196591998123,0.067050089451258,627.28747871601
0.68953125000002,0.071671384709426,0,67.388097363411,0.38857252290359,12.477437024599,1.0641734018358,717.23753981095,-0.0070233480336477,0.067079547906248,627.33891108012
0.68984375000002,0.071704973048853,0,67.387920452454,0.3885836789076,12.477308104428,1.0642042056716,717.29509870536,-0.0070270072940353,0.067109005531193,627.39030966934
0.69015625000002,0.071738562389927,0,67.387743560639,0.38859483496347,12.477179190856,1.0642350097225,717.35261892273,-0.0070306852289068,0.067138462326124,627.44167451715
0.69046875000002,0.071772152732657,0,67.466306845439,0.38860599107142,12.477050283886,1.0642658139885,717.41010050766,-0.0070343440478547,0.067167918291076,627.49300562909
0.69078125000002,0.071805744077031,0,67.466129991899,0.38861714723106,12.476921383519,1.0642966184692,717.46754348858,-0.0070379986928222,0.067197373426082,627.54430304227
0.69109375000002,0.071839336423057,0,67.465953157479,0.3886283034426,12.476792489759,1.0643274231646,717.52494787012,-0.0070416654245438,0.067226827731178,627.59556677618
0.69140625000002,0.071872929770732,0,67.544516499664,0.38863945970601,12.476663602608,1.0643582280746,717.58231369198,-0.0070453259588379,0.067256281206394,627.64679684972
0.69171875000002,0.071906524120058,0,67.544339703492,0.38865061602103,12.476534722069,1.0643890331991,717.63964096806,-0.0070490067045325,0.067285733851765,627.69799329672
0.69203125000002,0.071940119471036,0,67.544162926427,0.38866177238768,12.476405848144,1.0644198385378,717.69692974298,-0.0070526603937908,0.067315185667329,627.749156115
0.69234375000002,0.071973715823661,0,67.543986168478,0.38867292880614,12.476276980836,1.0644506440906,717.7541800101,-0.0070563509844459,0.067344636653111,627.80028535619
0.69265625000002,0.072007313177936,0,67.543809429632,0.38868408527604,12.476148120147,1.0644814498574,717.81139182658,-0.0070600122428421,0.067374086809149,627.85138100856
0.69296875000002,0.07204091153386,0,67.543632709885,0.3886952417977,12.47601926608,1.0645122558381,717.86856520754,-0.0070636764555532,0.06740353613548,627.90244311858
0.69328125000002,0.072074510891435,0,67.543456009234,0.38870639837064,12.475890418638,1.0645430620326,717.92570017713,-0.0070673282618734,0.067432984632133,627.95347168765
0.69359375000002,0.072108111250659,0,67.543279327672,0.38871755499498,12.475761577822,1.0645738684405,717.98279675098,-0.0070710020348258,0.067462432299143,628.00446676715
0.69390625000002,0.072141712611533,0,67.543102665198,0.38872871167088,12.475632743637,1.064604675062,718.03985497414,-0.0070746533610636,0.067491879136544,628.05542835163
0.69421875000002,0.072175314974058,0,67.542926021807,0.38873986839797,12.475503916083,1.0646354818967,718.09687483549,-0.0070783411085492,0.067521325144365,628.10635648277
0.69453125000002,0.072208918338227,0,67.54274939749,0.38875102517642,12.475375095164,1.0646662889446,718.15385640632,-0.0070819893873241,0.06755077032265,628.15725115979
0.69484375000002,0.072242522704053,0,67.542572792246,0.38876218200623,12.475246280882,1.0646970962055,718.21079967496,-0.0070856600281394,0.067580214671423,628.20811242413
0.69515625000002,0.072276128071526,0,67.542396206071,0.38877333888714,12.475117473239,1.0647279036792,718.26770468644,-0.0070893171641671,0.067609658190722,628.25894028241
0.69546875000002,0.072309734440645,0,67.542219638962,0.38878449581907,12.474988672239,1.0647587113658,718.32457144561,-0.0070930005147993,0.067639100880575,628.30973477801
0.69578125000002,0.072343341811415,0,67.542043090907,0.38879565280224,12.474859877883,1.0647895192649,718.38140000026,-0.0070966574855506,0.067668542741025,628.36049590349
0.69609375000002,0.072376950183837,0,67.856827191827,0.38880680983643,12.474731090175,1.0648203273765,718.43819035922,-0.0071003382170234,0.0676979837721,628.41122370997
0.69640625000002,0.072410559557907,0,67.856650681876,0.38881796692184,12.474602309116,1.0648511357004,718.49494256136,-0.0071039981450451,0.067727423973833,628.46191819513
0.69671875000002,0.072444169933624,0,67.93521434845,0.38882912405786,12.47447353471,1.0648819442365,718.55165660845,-0.0071076823478073,0.067756863346259,628.51257939458
0.69703125000002,0.072477781310993,0,68.013778034069,0.38884028124505,12.474344766958,1.0649127529846,718.60833257168,-0.0071113273375207,0.067786301889411,628.56320732126
0.69734375000002,0.072511393690008,0,68.013601581238,0.38885143848299,12.474216005864,1.0649435619446,718.66497042988,-0.0071149908243114,0.067815739603322,628.6138020031
0.69765625000002,0.072545007070678,0,68.092165304916,0.38886259577175,12.552827408909,1.0649743711164,718.72157021503,-0.0071186644905727,0.067845176488029,628.66436345999
0.69796875000002,0.072578621452993,0,68.091988890152,0.38887375311131,12.552698661137,1.0650051804999,718.77813195288,-0.0071223569093955,0.06787461254356,628.71489172716
0.69828125000002,0.072612236836958,0,68.091812494399,0.38888491050141,12.552569920029,1.0650359900948,718.83465570203,-0.0071259983433941,0.067904047769955,628.76538678891
0.69859375000002,0.072645853222573,0,68.091636117666,0.38889606794237,12.552441185589,1.0650667999011,718.89114142302,-0.0071296964533411,0.067933482167242,628.81584870824
0.69890625000002,0.072679470609838,0,68.012719602466,0.38890722543397,12.552312457818,1.0650976099186,718.94758921106,-0.0071333425196103,0.067962915735458,628.8662774708
0.69921875000002,0.07271308899875,0,68.091283421236,0.38891838297602,12.552183736719,1.0651284201472,719.00399903803,-0.0071370157787961,0.067992348474634,628.91667312339
0.69953125000002,0.072746708389314,0,68.16984725901,0.38892954056875,12.552055022295,1.0651592305867,719.06037094828,-0.0071406944401298,0.068021780384806,628.96703568403
0.69984375000002,0.072780328781524,0,68.169670958304,0.38894069821179,12.551926314548,1.065190041237,719.11670498535,-0.0071443432429219,0.068051211466005,629.01736516067
0.70015625000002,0.072813950175384,0,68.169494676585,0.38895185590531,12.551797613481,1.0652208520979,719.1730011261,-0.0071480311142865,0.06808064171827,629.06766159264
0.70046875000002,0.072847572570895,0,68.169318413868,0.38896301364938,12.551668919096,1.0652516631694,719.22925944628,-0.0071516918811759,0.068110071141625,629.11792499074
0.70078125000002,0.072881195968055,0,68.169142170127,0.3889741714436,12.551540231395,1.0652824744513,719.28547991821,-0.007155386765246,0.068139499736114,629.1681553794
0.70109375000002,0.072914820366863,0,68.168965945371,0.38898532928801,12.551411550381,1.0653132859434,719.34166262244,-0.0071590436369918,0.068168927501765,629.21835276967
0.70140625000002,0.072948445767316,0,68.168789739591,0.38899648718293,12.551282876056,1.0653440976457,719.39780755061,-0.0071627181239323,0.068198354438612,629.26851720313
0.70171875000002,0.072982072169426,0,68.247353710264,0.38900764512788,12.551154208424,1.0653749095579,719.45391473101,-0.0071663860090842,0.068227780546687,629.3186486813
0.70203125000002,0.073015699573183,0,68.168437384941,0.38901880312311,12.551025547486,1.0654057216799,719.5099841796,-0.0071700700651622,0.068257205826029,629.36874723869
0.70234375000002,0.073049327978587,0,68.168261236067,0.38902996116827,12.550896893244,1.0654365340116,719.5660159623,-0.0071737182990706,0.068286630276664,629.41881288832
0.70265625000002,0.073082957385638,0,68.168085106144,0.38904111926367,12.550768245702,1.0654673465529,719.62201003823,-0.0071774085525986,0.068316053898636,629.46884565873
0.70296875000002,0.073116587794341,0,68.16790899518,0.38905227740886,12.550639604861,1.0654981593036,719.6779664811,-0.0071810883964743,0.068345476691969,629.51884557303
0.70328125000002,0.073150219204695,0,68.246473060641,0.38906343560423,12.550510970725,1.0655289722636,719.73388530842,-0.0071847431752921,0.0683748986567,629.56881263029
0.70359375000002,0.073183851616696,0,68.246296987574,0.38907459384934,12.550382343295,1.0655597854328,719.78976653818,-0.0071884119804335,0.068404319792863,629.61874688221
0.70390625000002,0.073217485030346,0,68.246120933441,0.38908575214431,12.550253722574,1.0655905988109,719.845610189,-0.0071920819154847,0.068433740100491,629.66864833334
0.70421875000002,0.073251119445645,0,68.245944898247,0.38909691048915,12.550125108564,1.065621412398,719.90141627789,-0.0071957696577504,0.068463159579616,629.71851701316
0.70453125000002,0.073284754862594,0,68.245768881987,0.38910806888392,12.549996501268,1.0656522261937,719.9571848684,-0.007199422228975,0.068492578230272,629.76835292997
0.70484375000002,0.07331839128119,0,68.324333042135,0.38911922732816,12.549867900688,1.0656830401981,720.0129159521,-0.0072030852677609,0.068521996052496,629.81815611901
0.70515625000002,0.073352028701433,0,68.481637378682,0.38913038582225,12.549739306828,1.0657138544109,720.06860953358,-0.0072067908310966,0.068551413046319,629.86792660783
0.70546875000002,0.073385667123332,0,68.560201576662,0.38914154436583,12.549610719688,1.065744668832,720.12426568892,-0.0072104431351817,0.068580829211779,629.91766438303
0.70578125000002,0.073419306546876,0,68.56002563608,0.38915270295915,12.549482139271,1.0657754834614,720.17988440112,-0.0072141287887201,0.068610244548901,629.96736950203
0.70609375000002,0.073452946972069,0,68.717330029373,0.38916386160177,12.54935356558,1.0658062982988,720.23546571008,-0.0072178185918283,0.068639659057723,630.0170419772
0.70640625000002,0.073486588398914,0,68.717154126603,0.38917502029405,12.549224998618,1.0658371133441,720.29100966564,-0.0072214613933934,0.06866907273828,630.06668180412
0.70671875000002,0.073520230827406,0,68.716978242731,0.38918617903561,12.549096438386,1.0658679285971,720.34651623903,-0.0072251493908685,0.068698485590607,630.11628904121
0.70703125000002,0.073553874257547,0,68.716802377759,0.38919733782664,12.548967884887,1.0658987440579,720.4019854932,-0.0072288200974349,0.068727897614731,630.16586368903
0.70734375000002,0.073587518689506,0,68.716626531706,0.38920849666709,12.548839338124,1.0659295597261,720.4574177891,-0.0072319511414803,0.068757308810636,630.21540558691
0.70765625000002,0.073621164122783,0,68.795190861965,0.38921965555689,12.548710798099,1.0659603756017,720.51281209994,-0.0072361784655638,0.068786719178516,630.26491531552
0.70796875000002,0.073654810557873,0,68.873755211131,0.38923081449581,12.548582264813,1.0659911916845,720.56816951624,-0.0072398378877694,0.068816128718247,630.31439233051
0.70828125000002,0.07368845799461,0,68.873579421694,0.38924197348391,12.54845373827,1.0660220079745,720.62348967348,-0.0072435343908885,0.068845537429912,630.36383685063
0.70859375000002,0.073722106432997,0,68.873403651136,0.38925313252137,12.548325218473,1.0660528244714,720.67877265956,-0.0072471846084284,0.068874945313545,630.41324888889
0.70890625000002,0.073755755873033,0,68.951968056922,0.3892642916076,12.548196705422,1.0660836411751,720.73401843089,-0.0072508705151351,0.068904352369181,630.46262847034
0.70921875000002,0.073789406314719,0,68.95179232409,0.38927545074309,12.548068199121,1.0661144580855,720.78922705141,-0.0072545368893965,0.068933758596854,630.51197560618
0.70953125000002,0.073823057757995,0,68.951616610113,0.38928660992767,12.547939699572,1.0661452752025,720.84439840291,-0.0072584184573455,0.068963163996666,630.56129039571
0.70984375000002,0.073856710203032,0,68.951440915012,0.38929776916125,12.547811206777,1.0661760925259,720.89953289384,-0.0072618969019082,0.068992568568442,630.61057266192
0.71015625000002,0.073890363649664,0,68.951265238748,0.38930892844361,12.547682720739,1.0662069100556,720.95463015759,-0.0072655981874324,0.069021972312425,630.659822624
0.71046875000002,0.073924018097949,0,68.951089581335,0.38932008777502,12.547554241461,1.0662377277915,721.00969037858,-0.0072692724668446,0.069051375228576,630.70904022797
0.71078125000002,0.073957673547879,0,68.950913942761,0.38933124715505,12.626165926424,1.0662685457333,721.06471356898,-0.0072729214766354,0.069080777316932,630.75822548764
0.71109375000002,0.073991329999459,0,68.950738323027,0.389342406584,12.626037460671,1.0662993638811,721.1196997168,-0.0072766213112975,0.069110178577523,630.80737845615
0.71140625000002,0.074024987452688,0,68.950562722129,0.38935356606164,12.625909001684,1.0663301822346,721.1746488959,-0.0072802878059213,0.069139579010387,630.8564991226
0.71171875000002,0.074058645907569,0,68.950387140058,0.38936472558792,12.625780549465,1.0663610007936,721.22956109446,-0.0072839657552603,0.069168978615554,630.90558752001
0.71203125000002,0.074092305364098,0,68.950211576806,0.38937588516299,12.625652104018,1.0663918195582,721.28443635013,-0.0072876427382693,0.069198377393063,630.95464366827
0.71234375000002,0.074125965822274,0,68.950036032383,0.38938704478665,12.625523665343,1.0664226385281,721.33927468931,-0.0072913273868113,0.069227775342938,631.00366759837
0.71265625000002,0.074159627282101,0,68.949860506769,0.3893982044587,12.625395233445,1.0664534577032,721.39407611788,-0.0072950200695927,0.069257172465221,631.05265931653
0.71296875000002,0.074193289743576,0,68.949684999967,0.38940936417947,12.625266808323,1.0664842770834,721.44884069564,-0.0072986872304396,0.069286568759945,631.10161884483
0.71328125000002,0.074226953206432,0,68.949509511682,0.38942052394853,12.625138389983,1.0665150966685,721.50356886573,-0.0073016010723647,0.069315964226886,631.15054597446
0.71359375000002,0.074260617671462,0,68.949334042764,0.38943168376602,12.625009978425,1.0665459164584,721.55825931798,-0.0073060482135269,0.069345358866826,631.19944143784
0.71390625000002,0.074294283137889,0,68.94915859237,0.38944284363196,12.624881573652,1.066576736453,721.61291340646,-0.0073097355441711,0.069374752679066,631.24830453485
0.71421875000002,0.074327949605963,0,68.948983160773,0.38945400354616,12.624753175665,1.0666075566521,721.66753073147,-0.0073133994403547,0.069404145663878,631.29713551986
0.71453125000002,0.074361617075686,0,68.948807747962,0.38946516350864,12.624624784469,1.0666383770556,721.7221112896,-0.0073170834398557,0.069433537821299,631.34593442717
0.71484375000002,0.074395285547058,0,68.94863235394,0.38947632351951,12.624496400064,1.0666691976634,721.77665510371,-0.0073207901374528,0.069462929151357,631.39470128124
0.71515625000002,0.074428955020082,0,68.948456978692,0.3894874835785,12.624368022453,1.0667000184753,721.83116223605,-0.0073244630728801,0.069492319654095,631.44343608475
0.71546875000002,0.074462625494754,0,68.948281622228,0.38949864368537,12.624239651638,1.0667308394912,721.88563268689,-0.0073281341812696,0.069521709329534,631.49213886636
0.71578125000002,0.074496296971075,0,68.948106284531,0.38950980384072,12.624111287623,1.066761660711,721.94006646584,-0.0073318266090148,0.069551098177717,631.54080965242
0.71609375000002,0.074529969449049,0,68.947930965602,0.38952096404389,12.623982930408,1.0667924821345,721.99446362448,-0.0073354985051639,0.069580486198673,631.58944845708
0.71640625000002,0.074563642928672,0,69.026495822916,0.38953212429511,12.623854579996,1.0668233037616,722.04882417525,-0.0073391661717301,0.069609873392441,631.63805530039
0.71671875000002,0.074597317409941,0,69.02632054151,0.38954328459414,12.62372623639,1.0668541255921,722.10314813003,-0.0073428565829327,0.069639259759048,631.68663021678
0.71703125000002,0.074630992892864,0,69.026145278856,0.38955444494128,12.623597899592,1.066884947626,722.15743554024,-0.0073465120735657,0.069668645298531,631.73517320509
0.71734375000002,0.074664669377422,0,69.025970034773,0.38956560533612,12.623469569613,1.0669157698628,722.21168703277,-0.0073494426316753,0.069698030011271,631.78368417291
0.71765625000002,0.074698346863656,0,69.025794809765,0.38957676577889,12.623341246437,1.0669465923029,722.26590076571,-0.0073538749148581,0.069727413896282,631.83216355112
0.71796875000002,0.074732025351527,0,69.025619603349,0.38958792626949,12.623212930077,1.066977414946,722.32007860934,-0.0073575648694638,0.069756796954592,631.88061092178
0.71828125000002,0.074765704841047,0,69.025444415674,0.3895990868076,12.623084620533,1.0670082377918,722.37422002359,-0.0073612099915274,0.06978617918591,631.92902645471
0.71859375000002,0.074799385332219,0,69.025269246721,0.38961024739358,12.622956317808,1.0670390608402,722.42832495476,-0.0073649022011706,0.069815560590276,631.97741018035
0.71890625000002,0.074833066825037,0,69.025094096512,0.38962140802707,12.622828021905,1.0670698840912,722.48239348005,-0.0073685865683065,0.069844941167712,632.02576211808
0.71921875000002,0.074866749319509,0,69.024918965015,0.38963256870835,12.622699732826,1.0671007075446,722.53642560733,-0.0073722676651659,0.069874320918264,632.07408228193
0.71953125000003,0.074900432815628,0,69.024743852246,0.38964372943708,12.622571450573,1.0671315312002,722.59042137186,-0.0073759386892114,0.069903699841954,632.12237069398
0.71984375000003,0.074934117313399,0,69.024568758189,0.3896548902132,12.622443175148,1.067162355058,722.64438079196,-0.007379598121805,0.069933077938825,632.17062736756
0.72015625000003,0.074967802812821,0,69.024393682838,0.38966605103688,12.622314906554,1.0671931791177,722.69830386271,-0.007383292884166,0.069962455208908,632.21885234177
0.72046875000003,0.075001489313891,0,69.024218626203,0.38967721190794,12.622186644793,1.0672240033793,722.75219062327,-0.0073870124048346,0.069991831652232,632.26704564039
0.72078125000003,0.075035176816614,0,69.024043588261,0.38968837282634,12.622058389866,1.0672548278426,722.80604114875,-0.0073906545853668,0.070021207268838,632.31520724151
0.72109375000003,0.075068865320984,0,69.023868569023,0.38969953379222,12.621930141777,1.0672856525075,722.859855404,-0.0073943346233857,0.070050582058754,632.36333721361
0.72140625000003,0.075102554827005,0,69.023693568477,0.38971069480514,12.621801900528,1.0673164773739,722.91363341047,-0.0073980393509522,0.070079956022015,632.41143556365
0.72171875000003,0.075136245334678,0,69.102258744101,0.38972185586546,12.621673666121,1.0673473024416,722.96737524798,-0.0074016850936948,0.070109329158655,632.45950228986
0.72203125000003,0.075169936843801,0,69.102083780979,0.38973301697275,12.621545438562,1.0673781277104,723.02108139214,-0.0074045998823154,0.070138701468829,632.50753721434
0.72234375000003,0.075203629354963,0,69.101908836429,0.38974417812724,12.621417217845,1.0674089531803,723.07475036662,-0.0074090413225693,0.070168072952219,632.55554103081
0.72265625000003,0.075237322867587,0,69.101733910621,0.38975533932895,12.621289003976,1.0674397788512,723.12838370224,-0.0074127241643897,0.070197443609193,632.60351307111
0.72296875000003,0.075271017381983,0,69.180299161059,0.38976650057728,12.621160796958,1.0674706047228,723.18198143747,-0.0074156208506434,0.07022681343963,632.65145343956
0.72328125000003,0.075304712897791,0,69.337604587455,0.38977766187309,12.621032596793,1.0675014307952,723.23554205941,-0.0074200995782539,0.070256182443718,632.6993626087
0.72359375000003,0.075338409415368,0,69.337429717643,0.38978882321581,12.620904403483,1.0675322570681,723.28906712428,-0.0074237817219167,0.070285550621337,632.74724013244
0.72390625000003,0.075372106934593,0,69.337254866498,0.3897999846053,12.620776217031,1.0675630835413,723.34255618098,-0.0074274213347198,0.070314917972567,632.79508618739
0.72421875000003,0.07540580545547,0,69.415820191476,0.38981114604184,12.620648037439,1.0675939102149,723.39600916059,-0.0074311341699238,0.070344284497448,632.84290081094
0.72453125000003,0.075439504977999,0,69.415645377634,0.38982230752518,12.620519864708,1.0676247370886,723.44942618273,-0.0074347984147233,0.070373650196007,632.89068400197
0.72484375000003,0.075473205502177,0,69.494210739912,0.38983346905512,12.620391698841,1.0676555641623,723.50280721604,-0.0074384856100704,0.070403015068284,632.93843579827
0.72515625000003,0.075506907028008,0,69.494035963361,0.38984463063207,12.620263539841,1.0676863914358,723.55615231516,-0.0074421559492363,0.070432379114305,632.98615620964
0.72546875000003,0.075540609555488,0,69.493861205442,0.38985579225546,12.620135387709,1.0677172189091,723.60946148552,-0.0074458283242141,0.07046174233411,633.03384525671
0.72578125000003,0.075574313084619,0,69.493686466159,0.38986695392545,12.620007242447,1.067748046582,723.66273474253,-0.0074495203355141,0.070491104727729,633.0815029708
0.72609375000003,0.075608017615403,0,69.4935117455,0.38987811564218,12.698619261539,1.0677788744544,723.71597214205,-0.0074531776248552,0.0705204662952,633.12912935457
0.72640625000003,0.075641723147836,0,69.493337043471,0.38988927740533,12.698491130026,1.0678097025262,723.76917367362,-0.0074568535335039,0.070549827036551,633.17672444002
0.72671875000003,0.075675429681924,0,69.493162360065,0.38990043921511,12.698363005389,1.0678405307971,723.82233935873,-0.0074605558100238,0.070579186951817,633.22428825674
0.72703125000003,0.075709137217658,0,69.571727852757,0.38991160107123,12.698234887633,1.0678713592672,723.87546925875,-0.0074642253899118,0.070608546041032,633.27182080642
0.72734375000003,0.075742845755049,0,69.571553206577,0.389922762974,12.698106776758,1.0679021879362,723.92856336654,-0.0074678973426963,0.070637904304232,633.31932211242
0.72765625000003,0.075776555294121,0,69.571378579008,0.38993392492303,12.697978672762,1.0679330168039,723.98162220685,-0.0074708097772656,0.07066726174142,633.36679205189
0.72796875000003,0.075810265834777,0,69.571203970036,0.38994508691833,12.697850575656,1.0679638458705,724.03464427942,-0.0074753148170717,0.07069661835271,633.41423111595
0.72828125000003,0.075843977376936,0,69.57102937965,0.38995624895989,12.69772248544,1.0679946751354,724.08763176109,-0.0074782048052767,0.070725974138113,633.46163873543
0.72859375000003,0.07587768992111,0,69.492114650415,0.38996741104768,12.697594402113,1.0680255045989,724.14058242277,-0.0074826144098346,0.070755329097532,633.50901538476
0.72890625000003,0.075911403466755,0,69.491940097235,0.38997857318165,12.697466325679,1.0680563342607,724.19349795089,-0.0074862868834209,0.070784683231152,633.55636079591
0.72921875000003,0.075945118014053,0,69.491765562638,0.38998973536206,12.697338256139,1.0680871641207,724.24637782878,-0.0074899670392325,0.070814036538956,633.60367509233
0.72953125000003,0.075978833563003,0,69.570331204111,0.39000089758834,12.697210193496,1.0681179941787,724.29922206867,-0.0074936732539305,0.070843389020974,633.65095829837
0.72984375000003,0.076012550113605,0,69.570156706677,0.39001205986073,12.697082137753,1.0681488244347,724.35203073816,-0.0074973321089738,0.070872740677248,633.69821041418
0.73015625000003,0.076046267665816,0,69.569982227932,0.39002322217904,12.696954088917,1.0681796548883,724.40480438159,-0.0075002580696713,0.070902091507866,633.74543134243
0.73046875000003,0.07607998621976,0,69.569807767524,0.39003438454358,12.696826046977,1.0682104855396,724.45754135353,-0.0075047002701682,0.070931441512689,633.79262152185
0.73078125000003,0.076113705775316,0,69.648373483288,0.39004554695384,12.696698011942,1.0682413163885,724.51024335332,-0.0075083756310341,0.070960790691914,633.8397805294
0.73109375000003,0.076147426332506,0,69.648199060094,0.39005670940974,12.696569983823,1.0682721474347,724.56291041164,-0.0075113334593678,0.070990139045747,633.88690851714
0.73140625000003,0.076181147891386,0,69.726764812985,0.39006787191177,12.775182120086,1.0683029786782,724.61554087153,-0.0075157269085514,0.071019486573583,633.93400559352
0.73171875000003,0.076214870451902,0,69.726590426929,0.39007903445967,12.775054105781,1.0683338101189,724.66813638944,-0.0075194375361397,0.071048833276074,633.98107167488
0.73203125000003,0.076248594014269,0,69.726416059472,0.39009019705305,12.774926098392,1.0683646417564,724.72069705267,-0.0075223723100849,0.071078179152933,634.02810659424
0.73234375000003,0.076282318577899,0,69.804981867953,0.39010135969246,12.774798097917,1.0683954735909,724.77322121917,-0.0075267727048471,0.071107524204532,634.07511104387
0.73265625000003,0.076316044143374,0,69.804807537542,0.39011252237734,12.77467010436,1.0684263056222,724.82571051265,-0.007530457160332,0.071136868430576,634.12208437128
0.73296875000003,0.076349770710496,0,69.804633225659,0.39012368510794,12.853282275204,1.0684571378501,724.87816442479,-0.0075341591318054,0.071166211831214,634.16902682431
0.73328125000003,0.076383498279274,0,69.804458932313,0.39013484788396,12.853154295489,1.0684879702745,724.93058300527,-0.0075378413512811,0.071195554406469,634.21593841881
0.73359375000003,0.076417226849703,0,69.80428465749,0.39014601070574,12.8530263227,1.0685188028952,724.98296627595,-0.0075414953084335,0.071224896156381,634.26281916289
0.73390625000003,0.076450956421786,0,69.804110401202,0.39015717357288,12.852898356837,1.0685496357121,725.03531423797,-0.0075451799762738,0.071254237080977,634.30966910925
0.73421875000003,0.076484686995524,0,69.803936163425,0.39016833648557,12.852770397903,1.0685804687251,725.08762692494,-0.0075488506058943,0.071283577180296,634.35648824715
0.73453125000003,0.076518418570911,0,69.803761944168,0.39017949944362,12.852642445901,1.0686113019341,725.13990432972,-0.0075525653069046,0.071312916454369,634.40327662463
0.73484375000003,0.076552151147953,0,69.803587743414,0.39019066244705,12.852514500831,1.068642135339,725.19214655125,-0.0075562069479055,0.071342254903237,634.45003422334
0.73515625000003,0.076585884726646,0,69.803413561171,0.39020182549561,12.852386562696,1.0686729689395,725.24435353478,-0.0075598942081635,0.071371592526922,634.49676109945
0.73546875000003,0.076619619306766,0,69.803239397403,0.3902129885897,12.852258631499,1.0687038027354,725.296525878,-0.0075628352531188,0.071400929325598,634.54345706954
0.73578125000003,0.076653354888985,0,69.881805409673,0.39022415172881,12.852130707241,1.068734636727,725.34866199764,-0.0075672581822624,0.071430265298899,634.59012273646
0.73609375000003,0.076687091472641,0,69.881631282932,0.39023531491314,12.852002789925,1.0687654709138,725.40076348945,-0.0075709542327959,0.071459600447252,634.6367575252
0.73640625000003,0.076720829057951,0,69.881457174672,0.39024647814252,12.851874879552,1.0687963052959,725.45282985567,-0.0075746508527429,0.071488934770562,634.6833616489
0.73671875000003,0.076754567644915,0,69.881283084908,0.39025764141712,12.851746976125,1.068827139873,725.50486115493,-0.0075783217116167,0.071518268268861,634.72993513988
0.73703125000003,0.07678830723353,0,69.881109013618,0.39026880473687,12.851619079646,1.068857974645,725.55685738565,-0.0075819769526742,0.071547600942184,634.77647800135
0.73734375000003,0.0768220478238,0,69.880934960812,0.39027996810138,12.851491190117,1.0688888096119,725.60881854903,-0.0075856687456089,0.071576932790565,634.82299028043
0.73765625000003,0.076855789415602,0,69.880760926528,0.39029113151114,12.85136330754,1.0689196447733,725.66074518981,-0.0075886130337993,0.071606263814216,634.86947177779
0.73796875000003,0.076889532009305,0,69.880586910649,0.39030229496565,12.851235431918,1.0689504801293,725.71263597361,-0.0075928607664901,0.071635594012632,634.9159231291
0.73828125000003,0.076923275604527,0,69.880412913215,0.3903134584651,12.851107563251,1.0689813156798,725.76449201007,-0.0075967123498344,0.071664923386394,634.96234373523
0.73859375000003,0.076957020201396,0,69.880238934313,0.39032462200917,12.850979701547,1.0690121514245,725.81631375033,-0.0075996510586594,0.071694251935303,635.00873362802
0.73890625000003,0.076990765799956,0,69.880064973795,0.39033578559816,12.850851846798,1.0690429873634,725.86809949411,-0.0076040816915015,0.071723579659507,635.05509341957
0.73921875000003,0.077024512400151,0,69.879891031764,0.39034694923181,12.850723999011,1.0690738234964,725.91985084682,-0.0076077617186728,0.071752906558935,635.10142252338
0.73953125000003,0.077058260002,0,69.87971710819,0.39035811291031,12.850596158189,1.0691046598232,725.9715672976,-0.0076114719178102,0.071782232633653,635.14772118137
0.73984375000003,0.077092008605505,0,69.879543203054,0.39036927663351,12.850468324333,1.0691354963439,726.02324889932,-0.0076151467208723,0.0718115578837,635.19398938886
0.74015625000003,0.077125758210665,0,69.879369316364,0.39038044040126,12.850340497446,1.0691663330582,726.07489566875,-0.00761880931312,0.071840882309102,635.24022717288
0.74046875000003,0.07715950881748,0,69.879195448104,0.39039160421369,12.85021267753,1.069197169966,726.12650759063,-0.0076225034817918,0.071870205909902,635.28643456424
0.74078125000003,0.077193260425946,0,69.879021598284,0.3904027680704,12.850084864586,1.0692280070672,726.17808473956,-0.0076261699463586,0.071899528686126,635.33261157404
0.74109375000003,0.077227013036072,0,69.878847766887,0.3904139319717,12.849957058616,1.0692588443617,726.22962708569,-0.0076298690865538,0.071928850637809,635.37875822861
0.74140625000003,0.077260766647848,0,69.878673953919,0.39042509591753,12.849829259623,1.0692896818493,726.28113468781,-0.007633560284995,0.071958171764986,635.42487454345
0.74171875000003,0.077294521261342,0,69.878500159422,0.39043625990763,12.849701467615,1.0693205195298,726.33260812565,-0.007636477355807,0.07198749206754,635.47096032543
0.74203125000003,0.077328276876377,0,69.878326383234,0.39044742394204,12.849573682582,1.0693513574033,726.38404575074,-0.0076409234215075,0.072016811545943,635.51701624095
0.74234375000003,0.077362033493119,0,69.878152625513,0.39045858802108,12.849445904532,1.0693821954696,726.43544923189,-0.0076446069793433,0.0720461301998,635.56304165009
0.74265625000003,0.07739579111152,0,69.877978886196,0.39046975214401,12.849318133467,1.0694130337285,726.48681805133,-0.0076482837769034,0.072075448029288,635.60903679541
0.74296875000003,0.077429549731574,0,69.956545322769,0.39048091631139,12.849190369388,1.0694438721799,726.53815221095,-0.0076520000777677,0.072104765034433,635.65500171529
0.74328125000003,0.077463309353285,0,69.956371620257,0.39049208052292,12.849062612299,1.0694747108237,726.58945176697,-0.0076556774722698,0.072134081215274,635.70093639208
0.74359375000003,0.077497069976652,0,70.034938093623,0.39050324477861,12.8489348622,1.0695055496597,726.64071674957,-0.0076593333210232,0.072163396571844,635.74684086599
0.74390625000003,0.077530831601676,0,70.0347644279,0.39051440907828,12.848807119095,1.0695363886878,726.69194712628,-0.0076630335871656,0.072192711104176,635.79271516806
0.74421875000003,0.077564594228357,0,70.034590780555,0.39052557342215,12.927419540464,1.0695672279079,726.7431429536,-0.0076667289724968,0.072222024812306,635.83855930314
0.74453125000003,0.077598357856691,0,70.034417151612,0.3905367378101,12.927291811351,1.0695980673199,726.79430427266,-0.0076704061870736,0.07225133769626,635.88437329478
0.74484375000003,0.077632122486683,0,70.034243541035,0.39054790224194,12.927164089236,1.0696289069237,726.84543107061,-0.007674099564114,0.072280649756079,635.93015716307
0.74515625000003,0.077665888118423,0,70.034069948933,0.39055906671751,12.927036374126,1.069659746719,726.89652386878,-0.0076770746453065,0.072309960991759,635.97591074302
0.74546875000003,0.077699654751638,0,70.033896375008,0.39057023123714,12.926908666016,1.0696905867058,726.94758125542,-0.0076814767150729,0.072339271403439,636.02163460908
0.74578125000003,0.077733422386598,0,70.033722819552,0.39058139580074,12.92678096491,1.069721426884,726.99860468968,-0.007685144774286,0.072368580991045,636.06732821678
0.74609375000003,0.077767191023284,0,70.033549282489,0.39059256040795,12.926653270816,1.0697522672533,727.0495941669,-0.007688167831504,0.072397889754725,636.11299160587
0.74640625000003,0.077800960661518,0,70.033375763749,0.39060372505868,12.926525583733,1.0697831078137,727.10054882432,-0.0076918182766535,0.072427197694303,636.15862515641
0.74671875000003,0.077834731301426,0,70.033202263328,0.39061488975329,12.926397903655,1.0698139485653,727.15146856645,-0.0076962215548034,0.072456504809987,636.20422888878
0.74703125000003,0.077868502943016,0,70.033028781298,0.39062605449182,12.92627023059,1.0698447895076,727.20235446518,-0.0076998942118985,0.072485811101782,636.24980242604
0.74734375000003,0.077902275586258,0,70.032855317619,0.39063721927381,12.92614256454,1.0698756306408,727.25320603024,-0.0077035829379918,0.072515116569705,636.29534600386
0.74765625000003,0.077936049231161,0,70.032681872277,0.39064838409941,12.926014905507,1.0699064719645,727.30402328321,-0.007707279231278,0.072544421213796,636.34085963567
0.74796875000003,0.077969823877724,0,70.111248602748,0.39065954896862,12.925887253493,1.0699373134787,727.35480626218,-0.0077109527793784,0.072573725034086,636.38634332441
0.74828125000003,0.078003599525841,0,70.111075194129,0.39067071388138,12.925759608502,1.0699681551831,727.40555547997,-0.0077139085896129,0.072603028030755,636.43179692751
0.74859375000003,0.078037376175839,0,70.110901803791,0.39068187883754,12.925631970537,1.0699989970778,727.45626999967,-0.0077175942434926,0.0726323302033,636.47722082148
0.74890625000003,0.078071153827343,0,70.110728431725,0.39069304383692,12.925504339592,1.0700298391627,727.50694975751,-0.0077220113741494,0.072661631552481,636.52261506255
0.74921875000003,0.078104932480535,0,70.110555078038,0.39070420887988,12.925376715675,1.0700606814375,727.55759581658,-0.0077257144100918,0.072690932077896,636.56797924192
0.74953125000003,0.078138712135384,0,70.189121900147,0.390715373966,13.003989256266,1.0700915239022,727.60820773384,-0.0077293704233312,0.072720231779677,636.61331357094
0.74984375000003,0.078172492791889,0,70.26768874057,0.3907265390955,13.003861646409,1.0701223665566,727.65878546282,-0.007733098242569,0.072749530657857,636.65861811541
0.75015625000003,0.078206274450056,0,70.267515441815,0.39073770426823,13.003734043584,1.0701532094006,727.7093290951,-0.0077367661236642,0.072778828712476,636.703892841
0.75046875000003,0.078240057109879,0,70.267342161378,0.39074886948418,13.003606447794,1.0701840524341,727.75983861532,-0.0077404541671911,0.072808125943555,636.7491378028
0.75078125000003,0.07827384077136,0,70.267168899243,0.39076003474338,13.00347885904,1.070214895657,727.81031406434,-0.0077441309035989,0.072837422351135,636.79435300853
0.75109375000003,0.078307625434501,0,70.266995655395,0.39077120004557,13.003351277326,1.070245739069,727.86075542494,-0.0077478378715465,0.072866717935253,636.83953848043
0.75140625000003,0.078341411099301,0,70.266822429859,0.39078236539085,13.003223702652,1.0702765826702,727.91116275779,-0.0077515494317129,0.072896012695929,636.88469424906
0.75171875000003,0.07837519776576,0,70.266649222598,0.39079353077928,13.003096135021,1.0703074264603,727.96153608812,-0.0077552261607096,0.072925306633214,636.92982030207
0.75203125000003,0.078408985433877,0,70.26647603363,0.39080469621047,13.002968574435,1.0703382704393,728.01187542814,-0.0077589042908861,0.072954599747131,636.97491668026
0.75234375000003,0.078442774103643,0,70.266302863056,0.39081586168464,13.002841020899,1.0703691146068,728.06218158334,-0.0077614302950698,0.072983892037665,637.01998310075
0.75265625000003,0.07847656377509,0,70.266129710536,0.39082702720182,13.081453631888,1.0703999589631,728.11245222319,-0.007766279888128,0.073013183504994,637.06502050555
0.75296875000003,0.078510354448186,0,70.265956576402,0.39083819276187,13.081326092447,1.0704308035079,728.16268969297,-0.0077699860327009,0.073042474149014,637.11002797134
0.75328125000003,0.078544146122861,0,70.344523617768,0.39084935836468,13.159938717542,1.0704616482408,728.21289394148,-0.0077727189281209,0.073071763970049,637.155005628
0.75359375000003,0.07857793879897,0,70.344350520522,0.39086052401015,13.238551349695,1.0704924931619,728.26306413029,-0.0077756736122026,0.07310105296716,637.19995374819
0.75390625000003,0.078611732477409,0,70.422917598528,0.39087168969868,13.238423831417,1.0705233382714,728.31319887171,-0.0077810193091462,0.073130341141828,637.2448728699
0.75421875000003,0.078645527157181,0,70.42274453743,0.39088285542968,13.238296320196,1.0705541835688,728.36330070285,-0.0077849409283774,0.073159628493114,637.28976209961
0.75453125000003,0.078679322838541,0,70.422571494625,0.3908940212034,13.238168816036,1.0705850290541,728.41336902335,-0.0077884155256991,0.073188915021321,637.334621692
0.75484375000003,0.078713119521594,0,70.422398470049,0.39090518701996,13.238041318939,1.0706158747271,728.46340340911,-0.0077920991482055,0.073218200726456,637.37945183615
0.75515625000003,0.078746917206189,0,70.422225463761,0.3909163528789,13.237913828911,1.0706467205876,728.51340449332,-0.0077951026337675,0.073247485608595,637.42425233097
0.75546875000003,0.078780715892515,0,70.422052475747,0.39092751878002,13.237786345945,1.0706775666354,728.56337199305,-0.0077978764463647,0.07327676966774,637.46902325807
0.75578125000003,0.078814515580704,0,70.421879505789,0.39093868472413,13.237658870045,1.0707084128709,728.61330403597,-0.0078031862165765,0.07330605290382,637.51376548144
0.75609375000003,0.078848316270403,0,70.421706554173,0.39094985071055,13.237531401215,1.0707392592935,728.66320346267,-0.0078068586091449,0.073335335317033,637.55847779093
0.75640625000003,0.078882117961759,0,70.421533620792,0.39096101673931,13.237403939457,1.0707701059033,728.71306918962,-0.0078105600645452,0.073364616907352,637.60316070209
0.75671875000003,0.078915920654752,0,70.500100863163,0.39097218281036,13.237276484768,1.0708009527,728.76290174827,-0.0078135388520626,0.073393897674905,637.64781406964
0.75703125000003,0.07894972434941,0,70.578668123708,0.390983348924,13.237149037161,1.0708317996835,728.81270019866,-0.0078172226971054,0.073423177619537,637.69243819741
0.75734375000003,0.078983529045781,0,70.578495244948,0.39099451507974,13.237021596629,1.0708626468538,728.86246436887,-0.0078218554932246,0.073452456741257,637.73703324994
0.75765625000003,0.079017334743728,0,70.578322384522,0.39100568127774,13.23689416318,1.0708934942107,728.91219624446,-0.0078246164547774,0.073481735040109,637.7815984784
0.75796875000003,0.07905114144347,0,70.656889699678,0.39101684751769,13.236766736816,1.070924341754,728.96189388521,-0.0078283067270396,0.07351101251667,637.82613462777
0.75828125000003,0.079084949144483,0,70.656716875589,0.39102801379995,13.236639317534,1.0709551894836,729.01155810464,-0.0078317760039877,0.073540289170443,637.87064146522
0.75859375000003,0.079118757847789,0,70.656544069088,0.39103918012403,13.236511905333,1.0709860373993,729.06118944105,-0.0078344181788818,0.073569565001792,637.91511878807
0.75890625000003,0.07915256755241,0,70.656371281923,0.39105034649069,13.236384500216,1.0710168855016,729.11078499715,-0.007840258320217,0.073598840009721,637.95956767663
0.75921875000003,0.079186378258726,0,70.656198512498,0.3910615128993,13.23625710219,1.0710477337896,729.16034917049,-0.0078431018294831,0.0736281141954,638.00398655454
0.75953125000003,0.079220189966701,0,70.656025761157,0.39107267934974,13.236129711253,1.0710785822636,729.20987876865,-0.0078474681574067,0.073657387558659,638.04837659365
0.75984375000003,0.079254002676282,0,70.655853028108,0.39108384584213,13.314742484886,1.0711094309233,729.25937592004,-0.0078504591682405,0.073686660099135,638.09273709783
0.76015625000003,0.079287816387432,0,70.734420470928,0.39109501237626,13.314615108141,1.0711402797685,729.30883962975,-0.0078533749476284,0.07371593181726,638.13706836181
0.76046875000003,0.079321631100614,0,70.734247773922,0.39110617895239,13.314487738486,1.0711711287993,729.35826893173,-0.0078578826547759,0.073745202713226,638.18137092991
0.76078125000003,0.079355446815111,0,70.734075095427,0.39111734557029,13.314360375937,1.0712019780154,729.40766598166,-0.0078606522000507,0.073774472786221,638.22564397094
0.76109375000003,0.079389263531499,0,70.733902434902,0.39112851223024,13.314233020481,1.071232827417,729.45702798866,-0.0078659516759532,0.073803742037385,638.26988837888
0.76140625000003,0.079423081249382,0,70.73372979273,0.39113967893185,13.31410567213,1.0712636770035,729.50635823192,-0.0078689323548739,0.07383301046572,638.31410316179
0.76171875000003,0.079456899969066,0,70.733557168592,0.39115084567529,13.39271848836,1.0712945267752,729.55565415344,-0.0078733289744968,0.073862278072132,638.35828919602
0.76203125000003,0.079490719690347,0,70.733384562714,0.39116201245997,13.392591154222,1.0713253767317,729.60491778236,-0.007876306380953,0.073891544856045,638.40244580731
0.76234375000003,0.079524540413291,0,70.733211974917,0.39117317928667,13.392463827185,1.0713562268731,729.65414714665,-0.007880713600434,0.073920810817719,638.4465737537
0.76265625000003,0.079558362137898,0,70.73303940532,0.39118434615494,13.392336507257,1.071387077199,729.70334374997,-0.0078844080521252,0.073950075957154,638.49067247488
0.76296875000003,0.079592184864184,0,70.732866853879,0.39119551306478,13.39220919444,1.0714179277095,729.75250733517,-0.0078877992638171,0.073979340274413,638.53474210152
0.76328125000003,0.079626008592108,0,70.732694320551,0.39120668001607,13.392081888737,1.0714487784044,729.80163729263,-0.0078917993181385,0.074008603769489,638.57878290151
0.76359375000003,0.079659833321683,0,70.732521805441,0.39121784700875,13.391954590152,1.0714796292834,729.85073494172,-0.0078945670582679,0.074037866442373,638.62279439506
0.76390625000003,0.079693659052975,0,70.732349308342,0.39122901404269,13.39182729868,1.0715104803468,729.89979811709,-0.0078991815891483,0.07406712829332,638.66677744882
0.76421875000003,0.079727485785743,0,70.732176829569,0.39124018111824,13.391700014326,1.0715413315941,729.9488292361,-0.007902180280794,0.074096389322074,638.71073113586
0.76453125000003,0.079761313520451,0,70.732004368708,0.39125134823506,13.391572737096,1.0715721830252,729.99782675012,-0.0079060127207687,0.074125649528954,638.75465611161
0.76484375000003,0.079795142256753,0,70.731831926013,0.3912625153932,13.391445466985,1.0716030346403,730.04679083974,-0.0079102484275176,0.074154908913724,638.79855229714
0.76515625000003,0.079828971994613,0,70.731659501748,0.39127368259239,13.391318203997,1.0716338864389,730.09572271843,-0.0079132275274342,0.074184167476428,638.84241929174
0.76546875000003,0.079862802734265,0,70.810227252572,0.39128484983305,13.391190948137,1.0716647384212,730.14462054565,-0.0079176537230478,0.074213425217475,638.88625777357
0.76578125000003,0.079896634475522,0,70.810054864271,0.39129601711473,13.391063699404,1.0716955905869,730.19348583682,-0.0079213459801719,0.074242682136503,638.93006723354
0.76609375000003,0.079930467218395,0,70.809882494153,0.39130718443738,13.390936457804,1.0717264429357,730.24231886561,-0.0079239874306566,0.074271938233491,638.97384761151
0.76640625000003,0.079964300962999,0,70.809710139612,0.39131835180164,13.390809223335,1.071757295468,730.29111686788,-0.0079294424120638,0.074301193509886,639.01759982807
0.76671875000003,0.079998135709111,0,70.809537807868,0.39132951920664,13.390681996001,1.0717881481831,730.33988418203,-0.0079317418874052,0.074330447962743,639.06132259371
0.76703125000003,0.080031971457147,0,70.809365492006,0.39134068665252,13.390554775801,1.0718190010812,730.38861759709,-0.0079354225331655,0.074359701594307,639.10501687352
0.76734375000003,0.080065808206772,0,70.809193194147,0.39135185413951,13.390427562735,1.0718498541621,730.437317532,-0.0079398461307093,0.074388954404518,639.14868259834
0.76765625000003,0.080099645958026,0,70.809020914469,0.39136302166701,13.39030035681,1.0718807074257,730.48598556694,-0.007942827993231,0.074418206392792,639.19231920096
0.76796875000003,0.080133484710947,0,70.887588810291,0.39137418923572,13.390173158023,1.0719115608719,730.53461975145,-0.0079472141680578,0.074447457559645,639.23592750813
0.76828125000003,0.080167324465432,0,70.966156724336,0.39138535684518,13.390045966379,1.0719424145003,730.58322255421,-0.0079495133820846,0.074476707904513,639.27950660598
0.76859375000003,0.080201165221785,0,70.965984498759,0.39139652449553,13.389918781878,1.0719732683114,730.63179050688,-0.0079546098932659,0.074505957428281,639.32305766292
0.76890625000003,0.080235006979708,0,70.96581229137,0.39140769218667,13.389791604524,1.0720041223046,730.68032662711,-0.0079583166936335,0.074535206130254,639.36657974224
0.76921875000003,0.080268849739268,0,70.965640099694,0.39141885991878,13.38966443432,1.0720349764801,730.72882939781,-0.0079627180970663,0.074564454011574,639.41007328201
0.76953125000003,0.080302693500547,0,70.965467930646,0.39143002769136,13.389537271262,1.0720658308374,730.77730048228,-0.0079656948022485,0.074593701069723,639.45353797344
0.76984375000003,0.080336538263471,0,70.965295777453,0.39144119550451,13.389410115356,1.0720966853765,730.82573827608,-0.0079693902818746,0.074622947307236,639.49697419395
0.77015625000003,0.080370384027959,0,70.96512364244,0.39145236335764,13.389282966613,1.0721275400971,730.87414448621,-0.0079714764985238,0.074652192723099,639.54038142067
0.77046875000003,0.080404230794284,0,70.964951525279,0.39146353125186,13.389155825013,1.0721583949994,730.92251620375,-0.0079760878210325,0.074681437318032,639.58376077402
0.77078125000003,0.080438078562744,0,70.964779426748,0.39147469918614,13.38902869058,1.072189250083,730.97085696061,-0.0079783826459163,0.074710681091958,639.62711103964
0.77109375000003,0.080471927331808,0,70.964607345358,0.39148586716133,13.388901563297,1.072220105348,731.01916355549,-0.0079826083791681,0.074739924043315,639.67043317319
0.77140625000003,0.080505777103143,0,70.964435282296,0.39149703517726,13.388774443175,1.0722509607946,731.06743678165,-0.0079878633915747,0.074769166174192,639.71372708112
0.77171875000003,0.080539627876068,0,70.964263237412,0.39150820323334,13.388647330215,1.0722818164223,731.11567859805,-0.0079913922494322,0.07479840748366,639.75699205419
0.77203125000003,0.080573479650656,0,70.964091208194,0.39151937133011,13.388520224421,1.0723126722312,731.16388699044,-0.0079960065900909,0.074827647972817,639.80022876094
0.77234375000003,0.080607332426987,0,70.963919201616,0.39153053946692,13.388393125792,1.0723435282206,731.21206474937,-0.0079979679995894,0.074856887639014,639.84343652311
0.77265625000003,0.080641186204857,0,70.963747210816,0.39154170764368,13.38826603433,1.0723743843907,731.26020896601,-0.0080012785611952,0.074886126485021,639.88661604315
0.77296875000003,0.080675040984481,0,71.042315395572,0.39155287586083,13.38813895004,1.0724052407414,731.30832069086,-0.0080045723452011,0.074915364509634,639.92976730178
0.77328125000003,0.080708896765792,0,71.120883598165,0.39156404411825,13.388011872916,1.072436097273,731.35639833847,-0.0080100629503779,0.074944601713557,639.97289056674
0.77359375000003,0.080742753548667,0,71.120711661513,0.39157521241607,13.387884802965,1.0724669539847,731.40444568364,-0.0080123630336081,0.074973838096362,640.01598466668
0.77390625000003,0.080776611333286,0,71.120539742686,0.39158638075397,13.387757740192,1.0724978108766,731.45245960821,-0.0080160723507584,0.075003073657937,640.05905084579
0.77421875000003,0.08081047011955,0,71.120367842016,0.39159754913169,13.387630684601,1.0725286679486,731.50044182629,-0.0080187234543782,0.075032308398598,640.10208834399
0.77453125000003,0.080844329907605,0,71.120195959272,0.39160871754959,13.466243793661,1.072559525201,731.54838964988,-0.0080241162139796,0.075061542318258,640.14509829208
0.77484375000003,0.080878190697273,0,71.12002409458,0.39161988600746,13.466116752421,1.0725903826331,731.59630666587,-0.0080271982039381,0.075090775417004,640.18807929256
0.77515625000003,0.080912052488566,0,71.119852247779,0.39163105450523,13.46598971836,1.0726212402453,731.64418992098,-0.0080322402178316,0.075120007695042,640.23103253504
0.77546875000003,0.080945915281517,0,71.119680416729,0.39164222304348,13.465862691485,1.0726520980374,731.69204112035,-0.0080367100143852,0.075149239152977,640.27395725495
0.77578125000003,0.080979779076141,0,71.119508608236,0.39165339162104,13.465735671795,1.0726829560086,731.73986200373,-0.0080384048629084,0.075178469788336,640.31685311834
0.77609375000003,0.081013643872521,0,71.119336815498,0.39166456023878,13.465608659294,1.0727138141593,731.78764915427,-0.0080421013647202,0.075207699603858,640.35972129234
0.77640625000003,0.081047509670541,0,71.119165040712,0.39167572889593,13.46548165398,1.0727446724893,731.83540406903,-0.0080456668013109,0.075236928598339,640.40256117874
0.77671875000003,0.081081376470173,0,71.118993283913,0.39168689759253,13.465354655853,1.0727755309985,731.88312638836,-0.0080496834572205,0.075266156772573,640.44537301903
0.77703125000003,0.081115244271473,0,71.118821545079,0.39169806632976,13.465227664921,1.0728063896867,731.93081749638,-0.0080522138963853,0.075295384125775,640.48815623282
0.77734375000003,0.081149113074446,0,71.118649824251,0.39170923510584,13.46510068118,1.0728372485539,731.97847486939,-0.0080568293993479,0.075324610658635,640.53091195816
0.77765625000003,0.081182982879067,0,71.118478121299,0.39172040392176,13.464973704635,1.0728681075999,732.02610124034,-0.0080597336006332,0.075353836370523,640.57363906906
0.77796875000003,0.081216853685613,0,71.118306436436,0.39173157277749,13.464846735287,1.0728989668249,732.07369408514,-0.0080644796558929,0.075383061262083,640.6163384339
0.77828125000003,0.081250725493435,0,71.118134769479,0.39174274167278,13.464719773136,1.0729298262285,732.12125523579,-0.0080684991245326,0.075412285333135,640.659009624
0.77859375000003,0.081284598303369,0,71.117963120548,0.39175391060739,13.46459281819,1.0729606858103,732.16878562746,-0.008070545967717,0.075441508583269,640.70165206068
0.77890625000003,0.081318472114668,0,71.117791489445,0.39176507958105,13.46446587045,1.0729915455707,732.21628215162,-0.0080750563437198,0.075470731013356,640.74426720581
0.77921875000003,0.081352346927717,0,71.11761987637,0.3917762485943,13.464338929912,1.0730224055092,732.26374738665,-0.0080783747957526,0.075499952622933,640.78685396117
0.77953125000003,0.081386222742495,0,71.117448281115,0.39178741764745,13.464211996577,1.0730532656262,732.31117938398,-0.0080832990921132,0.07552917341192,640.82941311612
0.77984375000003,0.081420099558838,0,71.11727670386,0.39179858673991,13.464085070447,1.0730841259212,732.358579662,-0.0080876844815946,0.075558393380641,640.87194408106
0.78015625000003,0.081453977376896,0,71.11710514459,0.39180975587148,13.463958151526,1.0731149863939,732.4059492967,-0.0080900635398962,0.07558761252903,640.91444654928
0.78046875000003,0.081487856196635,0,71.116933603317,0.39182092504241,13.463831239821,1.0731458470444,732.45328598939,-0.0080937159702111,0.075616830856902,640.95692135415
0.78078125000003,0.081521736018151,0,71.116762079835,0.39183209425285,13.463704335326,1.0731767078727,732.50059015879,-0.0080981005768505,0.075646048364825,640.99936842023
0.78109375000003,0.081555616841181,0,71.116590574298,0.39184326350235,13.463577438043,1.0732075688787,732.54786229491,-0.0081025160459188,0.075675265052258,641.04178754805
0.78140625000003,0.081589498665958,0,71.116419086722,0.39185443279096,13.463450547977,1.073238430062,732.59510304388,-0.0081060701474745,0.075704480919551,641.08417851051
0.78171875000003,0.081623381492435,0,71.116247617149,0.39186560211846,13.463323665127,1.0732692914226,732.64231234941,-0.0081088878919045,0.075733695966631,641.12654138775
0.78203125000003,0.081657265320523,0,71.116076165314,0.39187677148519,13.463196789498,1.0733001529605,732.68948840952,-0.0081136231028032,0.075762910193613,641.16887689312
0.78234375000003,0.08169115015042,0,71.115904731598,0.39188794089072,13.463069921098,1.073331014675,732.73663477726,-0.0081151739152801,0.075792123600603,641.21118369986
0.78265625000003,0.081725035981802,0,71.115733315549,0.3918991103355,13.462943059913,1.073361876567,732.78374626478,-0.0081210078961009,0.075821336187237,641.25346379708
0.78296875000003,0.08175892281495,0,71.115561917596,0.39191027981948,13.462816205957,1.0733927386355,732.83082817762,-0.0081235573446226,0.075850547953891,641.29571519174
0.78328125000004,0.081792810649903,0,71.115390537444,0.39192144934229,13.462689359224,1.0734236008808,732.87787722565,-0.0081275089076692,0.075879758900771,641.33793913091
0.78359375000004,0.08182669948629,0,71.115219175152,0.39193261890398,13.462562519718,1.0734544633029,732.92489399478,-0.0081321152285884,0.075908969027407,641.38013546155
0.78390625000004,0.081860589324508,0,71.115047830754,0.39194378850441,13.462435687443,1.0734853259015,732.9718794785,-0.0081359448810908,0.075938178334246,641.4223038003
0.78421875000004,0.081894480164327,0,71.114876504358,0.39195495814372,13.462308862398,1.0735161886765,733.01883334276,-0.0081395402899372,0.075967386821067,641.46444431153
0.78453125000004,0.081928372005863,0,71.114705195791,0.3919661278217,13.462182044586,1.0735470516277,733.0657553958,-0.0081431910536165,0.07599659448807,641.50655710191
0.78484375000004,0.081962264849139,0,71.11453390513,0.39197729753817,13.462055234014,1.0735779147549,733.11264609888,-0.0081462810753357,0.076025801335332,641.54864202668
0.78515625000004,0.081996158693969,0,71.114362632282,0.39198846729357,13.540668588153,1.0736087780582,733.15950417897,-0.0081506637529306,0.07605500736256,641.59069960709
0.78546875000004,0.082030053540535,0,71.114191377342,0.39199963708778,13.54054179205,1.0736396415374,733.20633100804,-0.0081543716224404,0.076084212570123,641.63272930817
0.78578125000004,0.082063949388808,0,71.114020140312,0.39201080692038,13.540415003188,1.0736705051923,733.25312664963,-0.0081573685475507,0.076113416958034,641.67473116334
0.78609375000004,0.082097846238706,0,71.113848921069,0.39202197679158,13.540288221566,1.073701369023,733.29988965025,-0.0081617849456834,0.076142620526052,641.71670574643
0.78640625000004,0.082131744090309,0,71.113677719719,0.3920331467014,13.540161447187,1.0737322330293,733.34662148829,-0.008165476902909,0.076171823274484,641.75865249522
0.78671875000004,0.082165642943589,0,71.113506536236,0.39204431664965,13.540034680053,1.0737630972109,733.39332169966,-0.0081691784583468,0.07620102520327,641.80057163858
0.78703125000004,0.082199542798549,0,71.113335370606,0.39205548663636,13.539907920165,1.0737939615679,733.43999029881,-0.0081728913257903,0.076230226312445,641.84246319009
0.78734375000004,0.082233443655177,0,71.113164222882,0.39206665666152,13.539781167529,1.0738248260999,733.4866279278,-0.0081757374219737,0.076259426601987,641.88432694649
0.78765625000004,0.082267345513606,0,71.112993092923,0.3920778267247,13.539654422146,1.0738556908071,733.53323327955,-0.0081796392396418,0.076288626071867,641.92616343144
0.78796875000004,0.082301248373534,0,71.112821980868,0.39208899682638,13.539527684018,1.0738865556891,733.57980743117,-0.00818302415798,0.076317824722493,641.96797226531
0.78828125000004,0.082335152235098,0,71.112650886584,0.39210016696634,13.539400953135,1.0739174207461,733.62634983232,-0.0081866579642,0.076347022553789,642.00975353667
0.78859375000004,0.082369057098524,0,71.112479810149,0.39211133714489,13.539274229507,1.0739482859778,733.67286051883,-0.008190732446534,0.076376219565264,642.05150753144
0.78890625000004,0.082402962963586,0,71.112308751513,0.39212250736147,13.539147513132,1.0739791513843,733.71933943828,-0.0081951405539698,0.076405415757553,642.09323407275
0.78921875000004,0.082436869830308,0,71.112137710757,0.39213367761629,13.539020804014,1.0740100169652,733.76578737968,-0.0081988409200802,0.076434611130396,642.13493295381
0.78953125000004,0.082470777698584,0,71.111966687921,0.39214484790894,13.538894102162,1.0740408827203,733.81220504059,-0.0082009594144187,0.076463805683754,642.17660400713
0.78984375000004,0.082504686568787,0,71.111795682708,0.39215601824014,13.538767407565,1.0740717486499,733.85858899559,-0.0082062561085706,0.076492999418085,642.21824841979
0.79015625000004,0.082538596440553,0,71.111624695411,0.39216718860914,13.538640720231,1.0741026147537,733.90494268032,-0.0082099521621821,0.076522192333005,642.25986499859
0.79046875000004,0.082572507313996,0,71.111453725935,0.39217835901634,13.538514040161,1.0741334810315,733.95126496674,-0.0082136786124146,0.076551384428681,642.30145419001
0.79078125000004,0.082606419189223,0,71.111282774375,0.39218952946121,13.538387367367,1.0741643474831,733.99755652594,-0.0082165710241814,0.076580575704909,642.34301580186
0.79109375000004,0.082640332065941,0,71.111111840391,0.39220069994432,13.538260701831,1.0741952141086,734.04381552838,-0.0082210885766567,0.076609766162433,642.38455045069
0.79140625000004,0.082674245944373,0,71.110940924346,0.39221187046498,13.538134043565,1.0742260809077,734.09004427088,-0.0082241676101235,0.076638955800596,642.42605739819
0.79171875000004,0.082708160824604,0,71.110770026066,0.39222304102393,13.538007392569,1.0742569478805,734.13624081097,-0.0082285071679165,0.076668144619635,642.46753733535
0.79203125000004,0.082742076706459,0,71.110599145601,0.39223421162066,13.537880748846,1.0742878150267,734.18240651392,-0.0082322203765287,0.076697332619608,642.50898979695
0.79234375000004,0.08277599359,0,71.110428282922,0.39224538225505,13.695234427357,1.0743186823463,734.22854096429,-0.0082359209402414,0.076726519800542,642.55041496067
0.79265625000004,0.082809911475225,0,71.110257438036,0.39225655292759,13.695107798183,1.0743495498392,734.27464417555,-0.0082396301528891,0.076755706162466,642.59181285777
0.79296875000004,0.082843830362131,0,71.110086610933,0.39226772363755,13.773721333767,1.0743804175051,734.32071616887,-0.0082433410916454,0.076784891705419,642.63318349888
0.79328125000004,0.082877750250723,0,71.109915801609,0.39227889438511,13.77359471915,1.074411285344,734.36675695461,-0.0082470660767107,0.076814076429432,642.67452690277
0.79359375000004,0.082911671140999,0,71.109745010057,0.39229006517043,13.773468111813,1.0744421533559,734.41276658055,-0.0082507635229255,0.07684326033454,642.71584307912
0.79390625000004,0.082945593033063,0,71.109574236325,0.39230123599313,13.773341511765,1.0744730215403,734.45874553359,-0.0082538030627479,0.076872443420663,642.75713191443
0.79421875000004,0.08297951592661,0,71.10940348028,0.39231240685365,13.773214918994,1.0745038898976,734.50469237765,-0.0082582077536999,0.07690162568816,642.79839387235
0.79453125000004,0.083013439821936,0,71.109232742043,0.39232357775151,13.773088333509,1.0745347584273,734.55060859909,-0.0082619090776388,0.07693080713675,642.83962849356
0.79484375000004,0.083047364718949,0,71.109062021567,0.39233474868707,13.772961755311,1.0745656271295,734.59649373345,-0.0082655945348995,0.076959987766565,642.88083596096
0.79515625000004,0.083081290617648,0,71.10889131885,0.39234591965994,13.772835184401,1.074596496004,734.64234775334,-0.0082693412369961,0.076989167577642,642.92201631464
0.79546875000004,0.083115217518033,0,71.108720633891,0.39235709067025,13.772708620782,1.0746273650507,734.68817075478,-0.0082730322565789,0.077018346570013,642.9631695344
0.79578125000004,0.083149145420102,0,71.108549966676,0.39236826171814,13.772582064455,1.0746582342695,734.73396270235,-0.0082767508916006,0.077047524743716,643.00429566822
0.79609375000004,0.083183074323745,0,71.108379317205,0.39237943280293,13.851195672899,1.0746891036601,734.77972410136,-0.0082797914439461,0.077076702098727,643.04539454569
0.79640625000004,0.083217004229297,0,71.108208685499,0.39239060392519,13.85106913116,1.0747199732227,734.82545358915,-0.0082841910099092,0.077105878635229,643.08646672254
0.79671875000004,0.083250935136321,0,71.108038071566,0.39240177508489,13.850942596719,1.0747508429569,734.87115301462,-0.0082872270947316,0.077135054353073,643.12751148223
0.79703125000004,0.083284867045239,0,71.10786747528,0.3924129462816,13.850816069574,1.0747817128628,734.91682081834,-0.0082912608468865,0.077164229252441,643.16852954699
0.79734375000004,0.083318799955784,0,71.107696896795,0.3924241175155,13.850689549731,1.0748125829401,734.96245809156,-0.0082947313402768,0.077193403333519,643.20952034429
0.79765625000004,0.083352733867931,0,71.107526335992,0.39243528878661,13.850563037188,1.074843453189,735.00806388374,-0.0082990005291099,0.077222576595694,643.25048442507
0.79796875000004,0.083386668781808,0,71.107355792945,0.39244646009495,13.850436531948,1.0748743236091,735.05363914586,-0.0083027398331474,0.077251749039627,643.29142137733
0.79828125000004,0.083420604697376,0,71.107185267604,0.39245763144032,13.850310034012,1.0749051942004,735.09918352804,-0.0083064690235649,0.077280920665164,643.33233136036
0.79859375000004,0.083454541614628,0,71.107014759994,0.39246880282256,13.850183543382,1.0749360649627,735.1446970727,-0.0083101827718586,0.077310091472324,643.3732144052
0.79890625000004,0.083488479533517,0,71.106844270144,0.39247997424171,13.850057060067,1.0749669358958,735.19018026807,-0.008313214265239,0.077339261461082,643.41407036809
0.79921875000004,0.083522418454197,0,71.106673797901,0.39249114569804,13.849930584054,1.0749978069999,735.23563171664,-0.0083175798377562,0.077368430631672,643.45489975182
0.79953125000004,0.083556358376516,0,71.106503343428,0.39250231719128,13.849804115352,1.0750286782747,735.28105281975,-0.00832130038096,0.077397598983922,643.49570208716
0.79984375000004,0.083590299300448,0,71.106332906628,0.39251348872131,13.84967765396,1.07505954972,735.32644361724,-0.0083243471804923,0.077426766517971,643.53647739265
0.80015625000004,0.08362424122622,0,71.106162487579,0.39252466028818,13.849551199884,1.0750904213358,735.3718027392,-0.0083287334156816,0.077455933233756,643.57722617018
0.80046875000004,0.083658184153608,0,71.105992086208,0.39253583189198,13.849424753123,1.0751212931221,735.41713157736,-0.0083324615597392,0.077485099131399,643.61794795301
0.80078125000004,0.083692128082656,0,71.105821702481,0.39254700353235,13.849298313679,1.0751521650784,735.46243015482,-0.0083355552586668,0.077514264210936,643.65864271364
0.80109375000004,0.083726073013454,0,71.105651336528,0.39255817520959,13.927912039034,1.075183037205,735.5076971755,-0.0083398671347084,0.077543428472316,643.69931107678
0.80140625000004,0.083760018945913,0,71.105480988219,0.39256934692353,14.006525771709,1.0752139095017,735.5529339211,-0.0083436048642785,0.077572591915655,643.7399524572
0.80171875000004,0.083793965880062,0,71.105310657591,0.39258051867418,14.006399354225,1.0752447819682,735.59814004138,-0.0083473002598623,0.077601754540959,643.78056706168
0.80203125000004,0.083827913815861,0,71.105140344602,0.39259169046122,14.006272944062,1.0752756546045,735.64331594657,-0.0083503529392923,0.07763091634835,643.82115473843
0.80234375000004,0.083861862753431,0,71.104970049384,0.39260286228496,14.006146541226,1.0753065274106,735.68846038225,-0.0083547423138423,0.077660077337594,643.86171607039
0.80265625000004,0.083895812692653,0,71.104799771788,0.39261403414535,14.006020145716,1.0753374003862,735.73357464753,-0.0083584620569604,0.077689237508993,643.90225049771
0.80296875000004,0.083929763633568,0,71.104629511858,0.39262520604221,14.005893757534,1.0753682735312,735.77865835071,-0.0083621621603258,0.07771839686249,643.94275821839
0.80328125000004,0.083963715576175,0,71.104459269593,0.39263637797538,14.005767376682,1.0753991468457,735.8237114911,-0.0083658809263469,0.077747555398121,643.98323927035
0.80359375000004,0.083997668520474,0,71.10428904499,0.3926475499451,14.005641003161,1.0754300203293,735.86873409182,-0.008369601179489,0.077776713115916,644.02369365705
0.80390625000004,0.084031622466468,0,71.10411883804,0.39265872195123,14.005514636971,1.0754608939821,735.91372617726,-0.0083733206566828,0.077805870015911,644.06412140125
0.80421875000004,0.084065577414149,0,71.103948648756,0.39266989399369,14.005388278116,1.0754917678038,735.95868779465,-0.0083770139319793,0.077835026098135,644.10452251876
0.80453125000004,0.08409953336353,0,71.182518634587,0.39268106607241,14.005261926596,1.0755226417945,736.00361890198,-0.0083807445168345,0.077864181362631,644.14489702726
0.80484375000004,0.084133490314599,0,71.182348480596,0.39269223818739,14.005135582413,1.0755535159539,736.04851956511,-0.0083844739756847,0.077893335809423,644.18524495462
0.80515625000004,0.084167448267365,0,71.182178344244,0.39270341033882,14.005009245569,1.075584390282,736.09338977962,-0.0083882121276687,0.077922489438549,644.22556630374
0.80546875000004,0.084201407221823,0,71.182008225532,0.3927145825262,14.004882916065,1.0756152647787,736.13822960491,-0.0083919149307431,0.077951642250043,644.26586108725
0.80578125000004,0.084235367177976,0,71.181838124408,0.3927257547497,14.004756593897,1.0756461394438,736.18303943001,-0.0083949523888872,0.077980794244058,644.30612917137
0.80609375000004,0.084269328135823,0,71.181668041016,0.39273692700943,14.004630279077,1.0756770142772,736.22781808375,-0.0083993421884947,0.078009945420269,644.34637106801
0.80640625000004,0.084303290095289,0,71.181497975152,0.39274809930519,14.004503971599,1.0757078892787,736.27256721639,-0.0084024024751916,0.078039095779147,644.38658608223
0.80671875000004,0.084337253056601,0,71.181327927015,0.39275927163711,14.004377671469,1.0757387644485,736.31728513181,-0.0084067848149733,0.078068245320364,644.42677503134
0.80703125000004,0.084371217019535,0,71.181157896449,0.39277044400505,14.004251378687,1.0757696397863,736.36197318017,-0.0084104823405407,0.078097394044191,644.4669372848
0.80734375000004,0.084405181984165,0,71.180987883504,0.39278161640881,14.004125093255,1.0758005152919,736.40663091315,-0.0084142113803212,0.078126541950587,644.50707310014
0.80765625000004,0.084439147950487,0,71.180817888168,0.3927927888488,14.003998815173,1.0758313909653,736.45125837299,-0.0084179320293218,0.078155689039587,644.54718247098
0.80796875000004,0.084473114918509,0,71.180647910451,0.39280396132454,14.003872544443,1.0758622668064,736.49585558535,-0.0084216378160896,0.078184835311217,644.58726542104
0.80828125000004,0.084507082888226,0,71.180477950332,0.39281513383614,14.003746281067,1.075893142815,736.54042253667,-0.0084253772991435,0.078213980765523,644.62732197774
0.80859375000004,0.084541051859641,0,71.180308007821,0.39282630638353,14.003620025046,1.0759240189911,736.58495929451,-0.0084290812341301,0.078243125402526,644.66735214127
0.80890625000004,0.084575021832751,0,71.180138082909,0.39283747896682,14.003493776381,1.0759548953344,736.62946583476,-0.0084328071934177,0.078272269222264,644.70735593664
0.80921875000004,0.084608992807562,0,71.1799681756,0.39284865158581,14.003367535074,1.075985771845,736.67394220544,-0.0084365298402816,0.078301412224771,644.74733338824
0.80953125000004,0.08464296478407,0,71.179798285876,0.39285982424045,14.003241301127,1.0760166485227,736.7183884065,-0.0084402568122479,0.078330554410082,644.78728450053
0.80984375000004,0.084676937762272,0,71.179628413751,0.39287099693082,14.003115074541,1.0760475253673,736.76280448842,-0.0084439657358519,0.078359695778225,644.82720929795
0.81015625000004,0.084710911742174,0,71.179458559208,0.3928821696569,14.002988855318,1.0760784023789,736.8071904389,-0.0084476876547775,0.078388836329238,644.8671077993
0.81046875000004,0.084744886723778,0,71.179288722244,0.39289334241864,14.002862643458,1.0761092795572,736.851546284,-0.0084514112432124,0.078417976063158,644.90698001405
0.81078125000004,0.084778862707079,0,71.17911890286,0.39290451521579,14.002736438964,1.0761401569021,736.89587204765,-0.0084551336610011,0.078447114980013,644.94682596313
0.81109375000004,0.084812839692016,0,71.178949101119,0.39291568804824,14.081350399317,1.0761710344135,736.94016821549,-0.0084582149686069,0.07847625307969,644.98664551947
0.81140625000004,0.084846817678773,0,71.178779316823,0.39292686091652,14.081224209558,1.0762019120914,736.98443343894,-0.0084625679072895,0.078505390362657,645.02643914867
0.81171875000004,0.084880796667172,0,71.17860955016,0.39293803382017,14.08109802717,1.0762327899357,737.02866910324,-0.0084662592881303,0.078534526828518,645.0662063997
0.81203125000004,0.08491477665727,0,71.178439801067,0.3929492067593,14.080971852152,1.0762636679461,737.07287471066,-0.0084700322614079,0.078563662477448,645.10594747705
0.81234375000004,0.08494875764907,0,71.178270069529,0.39296037973393,14.080845684508,1.0762945461227,737.11705036143,-0.0084737589306172,0.078592797309485,645.14566235729
0.81265625000004,0.08498273964257,0,71.178100355555,0.39297155274375,14.080719524238,1.0763254244652,737.16119607614,-0.008477452883083,0.078621931324657,645.18535107021
0.81296875000004,0.085016722637772,0,71.177930659123,0.39298272578883,14.080593371343,1.0763563029736,737.20531182041,-0.0084811707092042,0.078651064523005,645.22501363557
0.81328125000004,0.085050706634674,0,71.177760980255,0.39299389886929,14.080467225825,1.0763871816478,737.2493976314,-0.0084849099435337,0.078680196904552,645.26465008278
0.81359375000004,0.085084691633276,0,71.177591318931,0.39300507198506,14.080341087687,1.0764180604876,737.29345355713,-0.0084886273805202,0.078709328469337,645.30426041851
0.81390625000004,0.08511867763358,0,71.177421675152,0.39301624513585,14.080214956929,1.076448939493,737.33747960408,-0.0084923289091244,0.078738459217394,645.3438446514
0.81421875000004,0.085152664635503,0,71.177252049006,0.39302741832177,14.080088833563,1.0764798186636,737.38147667758,-0.0084947780712575,0.078767589148609,645.38340249913
0.81453125000004,0.085186652639295,0,71.1770824402,0.39303859154302,14.079962717569,1.0765106979997,737.42544211267,-0.0084997796280633,0.078796718263449,645.42293493205
0.81484375000004,0.085220641644706,0,71.176912849038,0.39304976479929,14.07983660896,1.076541577501,737.46937859731,-0.0085035099263584,0.078825846561515,645.46244098699
0.81515625000004,0.085254631651778,0,71.176743275432,0.3930609380906,14.07971050774,1.0765724571674,737.51328565032,-0.0085066961553016,0.078854974042906,645.50192088244
0.81546875000004,0.085288622660641,0,71.176573719279,0.39307211141683,14.079584413905,1.0766033369988,737.55716217008,-0.0085109673565263,0.078884100707906,645.54137503689
0.81578125000004,0.085322614671164,0,71.17640418069,0.39308328477832,14.079458327457,1.0766342169951,737.60100928843,-0.0085146937329251,0.078913226556293,645.58080305717
0.81609375000004,0.085356607683389,0,71.176234659626,0.39309445817449,14.079332248401,1.0766650971562,737.64482667088,-0.0085184036936103,0.078942351588185,645.62020509854
0.81640625000004,0.085390601697323,0,71.176065156077,0.39310563160572,14.079206176736,1.0766959774819,737.68861429585,-0.0085221507211952,0.078971475803613,645.65958118803
0.81671875000004,0.08542459671296,0,71.175895670033,0.39311680507171,14.079080112464,1.0767268579722,737.73237223937,-0.0085258475635825,0.079000599202619,645.69893132054
0.81703125000004,0.085458592730299,0,71.175726201506,0.39312797857268,14.078954055587,1.0767577386269,737.77610048157,-0.0085295659405498,0.079029721785227,645.73825553655
0.81734375000004,0.085492589749346,0,71.175556750485,0.39313915210833,14.157568163587,1.0767886194459,737.81979904939,-0.0085332877933242,0.079058843551476,645.777553845
0.81765625000004,0.085526587770094,0,71.175387316964,0.39315032567876,14.157442121503,1.0768195004292,737.86346794607,-0.008537027793964,0.079087964501396,645.81682626093
0.81796875000004,0.085560586792553,0,71.253958058422,0.39316149928395,14.157316086819,1.0768503815765,737.90710723524,-0.0085407366149294,0.079117084635025,645.85607279929
0.81828125000004,0.085594586816717,0,71.2537886599,0.39317267292384,14.157190059535,1.0768812628879,737.95071689286,-0.0085444708806806,0.07914620395239,645.89529348481
0.81859375000004,0.085628587842588,0,71.253619278864,0.39318384659824,14.157064039653,1.0769121443631,737.99429695567,-0.008548192541372,0.079175322453531,645.93448831936
0.81890625000004,0.085662589870115,0,71.253449915366,0.39319502030748,14.156938027177,1.0769430260021,738.03784786241,-0.0085513470970905,0.079204440138345,645.97365720893
0.81921875000004,0.085696592899446,0,71.253280569255,0.39320619405097,14.235552179584,1.0769739078048,738.08136838382,-0.0085556526540528,0.079233557007259,646.0128005553
0.81953125000004,0.085730596930438,0,71.253111240671,0.39321736782945,14.235426181915,1.077004789771,738.12485978048,-0.008559369622952,0.079262673059922,646.05191796528
0.81984375000004,0.085764601963135,0,71.252941929573,0.39322854164211,14.235300191654,1.0770356719007,738.16832165095,-0.0085630975838102,0.07929178829649,646.09100960378
0.82015625000004,0.085798607997544,0,71.331512793431,0.39323971548939,14.235174208803,1.0770665541938,738.21175402324,-0.0085668264220845,0.079320902716997,646.13007548535
0.82046875000004,0.085832615033659,0,71.331343517272,0.39325088937104,14.313788390841,1.0770974366501,738.25515692021,-0.0085705461150948,0.079350016321483,646.16911562493
0.82078125000004,0.085866623071483,0,71.331174258586,0.3932620632872,14.313662422812,1.0771283192695,738.29853033748,-0.0085742938387662,0.079379129109975,646.20813004511
0.82140625000004,0.085934642175328,0,71.330835778256,0.39328442280739,14.313410370116,1.07719011963,738.38039304401,-0.0085825691218759,0.07943735230363,646.28194338229
0.82203125000004,0.086002665283347,0,71.330497371542,0.39330678064735,14.313158362718,1.0772519169642,738.46264854983,-0.0085900134607482,0.07949557222571,646.35609338391
0.82265625000004,0.086070692395802,0,71.330159036304,0.39332913704361,14.312906398918,1.0773137116555,738.54524245891,-0.008597458972296,0.079553788878017,646.43053384966
0.82328125000004,0.086138723512941,0,71.408560929877,0.3933514922035,14.312654477205,1.0773755040472,738.6281272524,-0.008604905755265,0.079612002261495,646.50522381628
0.82390625000004,0.086206758634985,0,71.408222737162,0.39337384630904,14.312402596232,1.0774372944467,738.71126040623,-0.0086123535003303,0.079670212377018,646.58012662612
0.82453125000004,0.086274797762132,0,71.407884615505,0.39339619951962,14.312150754801,1.077499083129,738.79460386448,-0.0086198025410398,0.079728419225399,646.65520947399
0.82515625000004,0.08634284089456,0,71.328806407302,0.39341855197517,14.311898951844,1.0775608703402,738.87812357326,-0.0086272516993241,0.079786622807392,646.73044300383
0.82578125000004,0.086410888032431,0,71.328468427392,0.39344090379769,14.311647186412,1.0776226563007,738.96178905498,-0.0086347042942084,0.079844823123699,646.80580094624
0.82640625000004,0.086478939175886,0,71.328130518183,0.39346325509379,14.31139545766,1.0776844412076,739.04557304268,-0.0086421558367386,0.079903020174978,646.88125979287
0.82703125000004,0.086546994325056,0,71.327792679565,0.39348560595706,14.389883922318,1.0777462252374,739.12945113257,-0.0086496090006205,0.079961213961847,646.95679850996
0.82765625000004,0.086615053480058,0,71.406195068916,0.39350795646838,14.468372422237,1.0778080085481,739.21340149061,-0.0086570636771487,0.080019404484886,647.03239827666
0.82828125000004,0.086683116640995,0,71.405857371178,0.3935303066992,14.468120799342,1.077869791281,739.29740458199,-0.0086645193296756,0.080077591744644,647.10804225368
0.82890625000004,0.086751183807963,0,71.405519743739,0.39355265671046,14.467869210587,1.0779315735625,739.38144292888,-0.0086719758159832,0.080135775741637,647.18371537544
0.82953125000004,0.086819254981045,0,71.405182186511,0.39357500655595,14.467617655501,1.077993355506,739.46550089616,-0.0086794331266029,0.08019395647636,647.25940416501
0.83015625000004,0.086887330160318,0,71.404844699409,0.39359735628241,14.467366133668,1.0780551372127,739.549564497,-0.0086868914190115,0.080252133949281,647.33509656634
0.83078125000004,0.086955409345851,0,71.404507282354,0.3936197059294,14.467114644719,1.0781169187731,739.63362122224,-0.0086943505518191,0.080310308160848,647.4107817971
0.83140625000004,0.087023492537707,0,71.40416993527,0.39364205553207,14.545603345805,1.0781787002684,739.71765988428,-0.0087018111803733,0.08036847911149,647.48645021506
0.83203125000004,0.08709157973594,0,71.403832658084,0.39366440512017,14.545351921676,1.0782404817712,739.80167047922,-0.0087092724787192,0.080426646801619,647.56209319664
0.83265625000004,0.087159670940602,0,71.403495450727,0.39368675471959,14.545100529553,1.0783022633461,739.88564406349,-0.0087167344157151,0.080484811231632,647.6377030335
0.83328125000004,0.087227766151739,0,71.403158313134,0.39370910435258,14.544849169208,1.0783640450513,739.96957264202,-0.0087241972467015,0.080542972401913,647.71327283477
0.83390625000004,0.087295865369392,0,71.402821245241,0.39373145403755,14.544597840439,1.0784258269387,740.05344907008,-0.0087316604040864,0.080601130312834,647.78879644223
0.83453125000004,0.087363968593598,0,71.402484246989,0.39375380379119,14.544346543068,1.0784876090546,740.13726696251,-0.0087391250181124,0.080659284964755,647.86426835361
0.83515625000004,0.087432075824392,0,71.402147318318,0.3937761536268,14.544095276935,1.0785493914404,740.22102061721,-0.0087465901009804,0.080717436358028,647.93968365371
0.83578125000004,0.087500187061805,0,71.401810459175,0.39379850355625,14.543844041902,1.0786111741333,740.30470494109,-0.0087540558502742,0.080775584492993,648.01503795371
0.83640625000004,0.087568302305864,0,71.401473669507,0.39382085358929,14.543592837846,1.0786729571663,740.38831538799,-0.0087615228070014,0.080833729369987,648.09032733606
0.83703125000004,0.087636421556595,0,71.401136949262,0.39384320373402,14.543341664659,1.0787347405689,740.47184790109,-0.0087689903323702,0.080891870989335,648.16554830416
0.83765625000004,0.087704544814022,0,71.40080029839,0.3938655539974,14.543090522245,1.0787965243676,740.55529886147,-0.0087764584656235,0.08095000935136,648.2406977396
0.83828125000004,0.087772672078166,0,71.400463716846,0.39388790438476,14.542839410521,1.0788583085859,740.63866504135,-0.0087839291377958,0.081008144456378,648.31577286278
0.83890625000004,0.087840803349046,0,71.400127204583,0.39391025490094,14.542588329414,1.0789200932449,740.7219435684,-0.0087913989384348,0.081066276304698,648.39077119565
0.83953125000004,0.087908938626681,0,71.399790761557,0.39393260554964,14.542337278859,1.0789818783632,740.80513188158,-0.0087988686521738,0.081124404896627,648.46569053239
0.84015625000004,0.087977077911086,0,71.399454387726,0.39395495633374,14.542086258802,1.0790436639576,740.88822770038,-0.0088063421031956,0.081182530232467,648.54052891155
0.84078125000004,0.088045221202278,0,71.399118083049,0.39397730725562,14.541835269194,1.079105450043,740.97122900183,-0.0088138142568662,0.081240652312516,648.61528458593
0.84140625000004,0.088113368500269,0,71.398781847485,0.39399965831704,14.541584309993,1.0791672366326,741.05413398606,-0.0088212859262737,0.081298771137069,648.68995600616
0.84203125000004,0.088181519805073,0,71.398445680995,0.39402200951936,14.620073538643,1.0792290237381,741.13694105334,-0.0088287608602415,0.08135688670642,648.76454179704
0.84265625000004,0.088249675116702,0,71.398109583542,0.3940443608634,14.619822640152,1.0792908113701,741.21964878967,-0.0088362353184712,0.081414999020857,648.83904073785
0.84328125000004,0.088317834435167,0,71.397773555089,0.39406671234963,14.619571771975,1.0793525995378,741.30225594135,-0.0088437109403978,0.081473108080668,648.91345175041
0.84390625000004,0.088385997760478,0,71.397437595599,0.39408906397846,14.619320934089,1.0794143882495,741.3847614,-0.0088511872721459,0.081531213886138,648.98777387978
0.84453125000004,0.088454165092646,0,71.397101705038,0.39411141574968,14.619070126475,1.0794761775125,741.46716418877,-0.0088586641932902,0.081589316437551,649.06200628505
0.84515625000004,0.088522336431678,0,71.475506040852,0.39413376766355,14.618819349117,1.0795379673332,741.54946344572,-0.0088661424301727,0.081647415735188,649.13614822512
0.84578125000004,0.088590511777584,0,71.475170288047,0.3941561197193,14.618568602004,1.0795997577173,741.63165841444,-0.0088736222681118,0.081705511779331,649.21019904902
0.84640625000004,0.088658691130372,0,71.474834604069,0.39417847191687,14.618317885124,1.0796615486698,741.71374843377,-0.0088811012474289,0.081763604570257,649.28415818592
0.84703125000004,0.08872687449005,0,71.474498988886,0.39420082425536,14.618067198469,1.0797233401952,741.79573292333,-0.0088885817759917,0.081821694108243,649.35802513883
0.84765625000004,0.088795061856625,0,71.474163442467,0.39422317673417,14.617816542035,1.0797851322973,741.87761137999,-0.0088960626137748,0.081879780393568,649.43179947415
0.84828125000004,0.088863253230103,0,71.473827964781,0.3942455293529,14.696306073296,1.0798469249795,741.95938336674,-0.0089035446119385,0.081937863426507,649.50548081691
0.84890625000004,0.088931448610491,0,71.473492555796,0.39426788211061,14.69605547729,1.0799087182447,742.04104850782,-0.0089110273595476,0.081995943207333,649.5790688439
0.84953125000004,0.088999647997796,0,71.551897372963,0.39429023500637,14.695804911495,1.0799705120956,742.12260648108,-0.0089185094244124,0.082054019736323,649.6525632776
0.85015625000004,0.089067851392023,0,71.551562101291,0.39431258803957,14.695554375912,1.0800323065342,742.20405701183,-0.008925993292674,0.082112093013748,649.72596388435
0.85078125000004,0.089136058793179,0,71.551226898231,0.39433494120915,14.695303870541,1.0800941015625,742.28539986896,-0.0089334788368897,0.082170163039881,649.79927046603
0.85140625000004,0.089204270201269,0,71.629631921234,0.39435729451455,14.695053395385,1.0801558971821,742.36663486066,-0.0089409658065166,0.082228229814994,649.87248285833
0.85203125000004,0.089272485616299,0,71.62929685531,0.39437964795472,14.773543107927,1.0802176933944,742.44776183176,-0.0089484510202489,0.08228629333936,649.94560092576
0.85265625000004,0.089340705038273,0,71.628961857912,0.39440200152886,14.773292693209,1.0802794902005,742.52878065323,-0.0089559387878465,0.082344353613248,650.01862456215
0.85328125000004,0.089408928467198,0,71.628626929011,0.39442435523619,14.773042308717,1.0803412876012,742.60969122901,-0.0089634263384296,0.082402410636931,650.09155368344
0.85390625000004,0.089477155903077,0,71.628292068579,0.39444670907589,14.772791954454,1.0804030855974,742.69049348368,-0.0089709155935829,0.082460464410677,650.16438822742
0.85453125000004,0.089545387345917,0,71.627957276588,0.394469063047,14.772541630427,1.0804648841897,742.77118736855,-0.008978403688263,0.082518514934758,650.237128151
0.85515625000004,0.089613622795721,0,71.627622553011,0.39449141714912,14.772291336642,1.0805266833785,742.85177284904,-0.008985895329407,0.082576562209444,650.30977342932
0.85578125000004,0.089681862252495,0,71.62728789782,0.39451377138096,14.772041073103,1.0805884831641,742.93224991447,-0.0089933863236262,0.082634606235002,650.38232405105
0.85640625000004,0.089750105716243,0,71.62695331099,0.3945361257423,14.771790839819,1.0806502835467,743.01261856696,-0.0090008789912435,0.082692647011704,650.45478002119
0.85703125000004,0.089818353186969,0,71.626618792491,0.39455848023218,14.771540636796,1.0807120845264,743.09287882331,-0.0090083716256212,0.082750684539817,650.52714135384
0.85765625000004,0.089886604664679,0,71.626284342298,0.39458083484974,14.771290464041,1.0807738861031,743.17303071396,-0.0090158654125034,0.082808718819611,650.59940807757
0.85828125000004,0.089954860149377,0,71.625949960384,0.39460318959436,14.771040321561,1.0808356882769,743.25307428013,-0.0090233592350274,0.082866749851355,650.67158022826
0.85890625000004,0.090023119641066,0,71.625615646722,0.39462554446568,14.770790209364,1.0808974910476,743.33300957235,-0.009030854695747,0.082924777635316,650.74365785178
0.85953125000004,0.090091383139752,0,71.625281401286,0.39464789946261,14.770540127458,1.0809592944149,743.41283665229,-0.0090383508158911,0.082982802171763,650.81564100194
0.86015625000004,0.090159650645439,0,71.62494722405,0.39467025458498,14.770290075851,1.0810210983785,743.49255558955,-0.0090458468790768,0.083040823460965,650.88752973937
0.86078125000004,0.09022792215813,0,71.624613114988,0.39469260983182,14.77004005455,1.0810829029381,743.57216645864,-0.0090533449294867,0.08309884150319,650.95932413117
0.86140625000004,0.090296197677831,0,71.624279074074,0.39471496520284,14.769790063565,1.0811447080933,743.65166934456,-0.0090608421077311,0.083156856298705,651.03102424947
0.86203125000004,0.090364477204545,0,71.623945101282,0.39473732069729,14.769540102902,1.0812065138438,743.7310643345,-0.0090683408515974,0.083214867847779,651.10263017256
0.86265625000004,0.090432760738277,0,71.623611196585,0.39475967631453,14.769290172571,1.0812683201889,743.81035152087,-0.0090758422777716,0.083272876150679,651.17414198266
0.86328125000004,0.090501048279031,0,71.702017517439,0.39478203205433,14.76904027258,1.0813301271283,743.88953100684,-0.0090833411302131,0.083330881207674,651.24555976531
0.86390625000004,0.09056933982681,0,71.780423906338,0.39480438791602,14.768790402937,1.0813919346614,743.96860289092,-0.0090908426971487,0.08338888301903,651.31688361107
0.86453125000004,0.09063763538162,0,71.780090205775,0.39482674389901,14.768540563651,1.0814537427876,744.04756728136,-0.0090983445734692,0.083446881585016,651.38811361255
0.86515625000004,0.090705934943464,0,71.779756573206,0.39484910000311,14.768290754731,1.0815155515063,744.12642428697,-0.0091058484968516,0.083504876905899,651.45924986652
0.86578125000004,0.090774238512347,0,71.779423008606,0.39487145622761,14.768040976185,1.081577360817,744.20517402117,-0.0091133528645386,0.083562868981947,651.53029247016
0.86640625000004,0.090842546088271,0,71.700349354467,0.39489381257206,14.767791228021,1.081639170719,744.28381659974,-0.0091208572641417,0.083620857813427,651.60124152448
0.86703125000004,0.090910857671243,0,71.700015925727,0.39491616903614,14.767541510248,1.0817009812117,744.36235213971,-0.009128362947019,0.083678843400607,651.67209713278
0.86765625000004,0.090979173261265,0,71.699682564879,0.39493852561941,14.767291822876,1.0817627922944,744.44078076106,-0.0091358692681411,0.083736825743754,651.74285939899
0.86828125000004,0.091047492858342,0,71.699349271898,0.39496088232139,14.767042165912,1.0818246039664,744.51910258586,-0.0091433754918295,0.083794804843136,651.81352842916
0.86890625000004,0.091115816462478,0,71.699016046759,0.39498323914164,14.845532696845,1.0818864162272,744.59731773612,-0.0091508838379679,0.083852780699019,651.88410433147
0.86953125000004,0.091184144073676,0,71.698682889437,0.39500559607973,14.845283100724,1.0819482290758,744.67542633756,-0.0091583922423537,0.083910753311671,651.95458721406
0.87015625000004,0.091252475691942,0,71.698349799907,0.39502795313559,14.845033535038,1.0820100425118,744.75342851617,-0.0091659007292215,0.08396872268136,652.02497718661
0.87078125000004,0.091320811317279,0,71.698016778145,0.39505031030851,14.844783999794,1.0820718565343,744.83132439739,-0.0091734124870313,0.084026688808352,652.0952743612
0.87140625000004,0.091389150949692,0,71.697683824123,0.39507266759832,14.844534495003,1.0821336711426,744.90911411146,-0.0091809229731411,0.084084651692916,652.16547884771
0.87203125000004,0.091457494589183,0,71.69735093782,0.3950950250046,14.844285020672,1.0821954863361,744.98679778719,-0.0091884333641263,0.084142611335317,652.23559075929
0.87265625000004,0.091525842235759,0,71.697018119209,0.39511738252699,14.844035576809,1.0822573021139,745.06437555138,-0.0091959477228727,0.084200567735824,652.30561021018
0.87328125000004,0.091594193889422,0,71.696685368265,0.39513974016511,14.843786163425,1.0823191184753,745.14184753699,-0.0092034618465151,0.084258520894703,652.37553731243
0.87390625000004,0.091662549550176,0,71.696352684964,0.39516209791877,14.843536780526,1.0823809354197,745.21921387596,-0.0092109742730071,0.084316470812222,652.44537218014
0.87453125000004,0.091730909218026,0,71.696020069282,0.39518445578727,14.843287428123,1.0824427529462,745.29647469724,-0.0092184894275235,0.084374417488648,652.51511492925
0.87515625000004,0.091799272892977,0,71.695687521192,0.3952068137707,14.843038106222,1.0825045710541,745.3736301335,-0.0092260051887779,0.084432360924248,652.58476567371
0.87578125000004,0.091867640575031,0,71.695355040672,0.39522917186857,14.842788814834,1.0825663897427,745.45068031728,-0.0092335218314302,0.084490301119289,652.65432452937
0.87640625000004,0.091936012264194,0,71.695022627697,0.39525153008063,14.842539553965,1.0826282090112,745.52762538151,-0.0092410382785085,0.084548238074038,652.7237916111
0.87703125000004,0.092004387960468,0,71.773430439721,0.39527388840632,14.842290323625,1.0826900288588,745.60446545752,-0.0092485571511819,0.084606171788762,652.79316703559
0.87765625000004,0.09207276766386,0,71.77309816176,0.39529624684574,14.842041123823,1.0827518492848,745.6812006794,-0.0092560760872095,0.084664102263729,652.86245091785
0.87828125000004,0.092141151374372,0,71.772765951269,0.39531860539828,14.841791954566,1.0828136702884,745.75783117955,-0.0092635967447913,0.084722029499205,652.93164337466
0.87890625000004,0.092209539092009,0,71.772433808225,0.39534096406383,14.841542815863,1.0828754918689,745.83435709356,-0.0092711159548568,0.084779953495457,653.00074452146
0.87953125000004,0.092277930816775,0,71.772101732603,0.39536332284183,14.841293707722,1.0829373140254,745.91077855148,-0.0092786384135637,0.084837874252753,653.06975447561
0.88015625000004,0.092346326548673,0,71.771769724379,0.39538568173232,14.841044630152,1.0829991367573,745.98709568925,-0.0092861609753814,0.08489579177136,653.13867335303
0.88078125000004,0.09241472628771,0,71.771437783527,0.39540804073481,14.840795583161,1.0830609600638,746.06330864035,-0.0092936833388853,0.084953706051544,653.20750126969
0.88140625000004,0.092483130033888,0,71.771105910024,0.39543039984909,14.840546566758,1.0831227839441,746.1394175369,-0.0093012074275204,0.085011617093573,653.27623834246
0.88203125000004,0.092551537787211,0,71.770774103846,0.39545275907457,14.84029758095,1.0831846083974,746.21542251324,-0.0093087324764417,0.085069524897713,653.34488468792
0.88265625000004,0.092619949547685,0,71.770442364968,0.39547511841156,14.840048625746,1.083246433423,746.29132370268,-0.0093162588421671,0.085127429464231,653.41344042252
0.88328125000004,0.092688365315313,0,71.770110693366,0.39549747785938,14.839799701154,1.0833082590201,746.3671212396,-0.0093237850551199,0.085185330793396,653.4819056619
0.88390625000004,0.092756785090099,0,71.769779089016,0.3955198374178,14.839550807182,1.083370085188,746.44281525757,-0.0093313118564696,0.085243228885472,653.55028052345
0.88453125000004,0.092825208872048,0,71.769447551893,0.39554219708665,14.839301943838,1.0834319119258,746.51840589013,-0.0093388388913397,0.085301123740728,653.61856512315
0.88515625000004,0.092893636661164,0,71.769116081974,0.39556455686541,14.839053111131,1.0834937392328,746.59389326815,-0.0093463683465172,0.085359015359431,653.68675957701
0.88578125000004,0.092962068457451,0,71.768784679235,0.39558691675414,14.838804309069,1.0835555671083,746.66927752861,-0.0093538972752963,0.085416903741847,653.75486400178
0.88640625000004,0.093030504260913,0,71.76845334365,0.3956092767524,14.838555537659,1.0836173955515,746.74455880138,-0.0093614284018479,0.085474788888243,653.82287851329
0.88703125000004,0.093098944071555,0,71.768122075197,0.39563163685988,14.83830679691,1.0836792245616,746.81973722242,-0.0093689585229729,0.085532670798887,653.89080322707
0.88765625000004,0.093167387889382,0,71.767790873851,0.39565399707652,14.83805808683,1.0837410541379,746.89481292239,-0.0093764911555111,0.085590549474044,653.95863825993
0.88828125000004,0.093235835714396,0,71.767459739589,0.39567635740185,14.837809407427,1.0838028842795,746.96978603525,-0.0093840247599046,0.085648424913982,654.02638372775
0.88890625000004,0.093304287546603,0,71.767128672385,0.39569871783562,14.837560758709,1.0838647149858,747.0446566939,-0.0093915587471707,0.085706297118969,654.09403974565
0.88953125000004,0.093372743386008,0,71.766797672218,0.39572107837767,14.837312140683,1.0839265462559,747.11942503148,-0.0093990928164219,0.08576416608927,654.16160642938
0.89015625000004,0.093441203232613,0,71.766466739061,0.39574343902771,14.837063553358,1.0839883780892,747.19409118017,-0.0094066267473936,0.085822031825153,654.229083894
0.89078125000004,0.093509667086424,0,71.766135872892,0.39576579978547,14.915555154222,1.0840502104848,747.26865527162,-0.0094141630024326,0.085879894326885,654.29647225652
0.89140625000004,0.093578134947446,0,71.765805073687,0.39578816065053,14.915306628322,1.084112043442,747.3431174378,-0.0094217002376859,0.085937753594732,654.36377163072
0.89203125000004,0.093646606815681,0,71.765474341422,0.39581052162296,14.915058133146,1.08417387696,747.41747781283,-0.0094292372333293,0.085995609628961,654.43098213265
0.89265625000004,0.093715082691136,0,71.765143676072,0.39583288270226,14.914809668702,1.0842357110381,747.49173652633,-0.0094367757587132,0.08605346242984,654.49810387675
0.89328125000004,0.093783562573814,0,71.764813077615,0.39585524388817,14.914561234998,1.0842975456755,747.56589371078,-0.0094443161098407,0.086111311997634,654.5651369788
0.89390625000004,0.093852046463719,0,71.843222703507,0.39587760518071,14.914312832042,1.0843593808714,747.63994949884,-0.0094518564533898,0.086169158332612,654.63208155266
0.89453125000004,0.093920534360856,0,71.842892238764,0.39589996657936,14.914064459841,1.0844212166252,747.71390402188,-0.0094593968854224,0.086227001435039,654.69893771323
0.89515625000004,0.09398902626523,0,71.842561840842,0.3959223280838,15.071296433364,1.084483052936,747.78775741011,-0.0094669390490063,0.086284841305182,654.76570557541
0.89578125000004,0.094057522176845,0,71.842231509717,0.39594468969397,15.071048122697,1.0845448898031,747.86150979514,-0.0094744824292712,0.086342677943309,654.83238525342
0.89640625000004,0.094126022095705,0,71.841901245367,0.39596705140949,15.070799842808,1.0846067272257,747.93516131002,-0.0094820240128792,0.086400511349686,654.89897686069
0.89703125000004,0.094194526021815,0,71.920311205247,0.3959894132303,15.070551593705,1.0846685652031,748.00871208238,-0.0094895689746805,0.086458341524579,654.96548051305
0.89765625000004,0.094263033955179,0,71.919981074373,0.39601177515595,15.070303375396,1.0847304037345,748.08216224494,-0.0094971140789132,0.086516168468256,655.03189632335
0.89828125000004,0.094331545895802,0,71.919651010203,0.39603413718639,15.070055187888,1.0847922428192,748.15551192693,-0.0095046612810351,0.086573992180984,655.09822440587
0.89890625000004,0.094400061843688,0,71.919321012712,0.39605649932111,15.069807031188,1.0848540824564,748.22876126128,-0.0095122065324748,0.086631812663029,655.16446487318
0.89953125000004,0.094468581798842,0,71.918991081878,0.39607886156002,15.069558905305,1.0849159226454,748.30191037402,-0.0095197568515609,0.086689629914657,655.2306178411
0.90015625000004,0.094537105761268,0,71.918661217676,0.3961012239028,15.069310810246,1.0849777633855,748.37495940097,-0.0095273033144971,0.086747443936137,655.29668342059
0.90078125000004,0.094605633730971,0,71.918331420084,0.39612358634931,15.069062746017,1.0850396046758,748.44790846639,-0.0095348542274834,0.086805254727734,655.36266172688
0.90140625000004,0.094674165707956,0,71.918001689078,0.39614594889937,15.068814712628,1.0851014465157,748.52075770505,-0.0095424026613856,0.086863062289715,655.42855287161
0.90203125000004,0.094742701692226,0,71.917672024634,0.39616831155234,15.068566710084,1.0851632889043,748.59350724354,-0.0095499517299252,0.086920866622347,655.49435696791
0.90265625000004,0.094811241683788,0,71.996082584209,0.39619067430844,15.068318738394,1.085225131841,748.66615720886,-0.0095575067722098,0.086978667725896,655.56007413113
0.90328125000004,0.094879785682644,0,71.91701289534,0.39621303716715,15.068070797565,1.085286975325,748.73870773479,-0.0095650597134035,0.08703646560063,655.62570447091
0.90390625000004,0.0949483336888,0,71.916683430444,0.39623540012832,15.067822887603,1.0853488193555,748.81115894999,-0.0095726117256757,0.087094260246815,655.69124810032
0.90453125000004,0.09501688570226,0,71.916354032017,0.39625776319162,15.067575008517,1.0854106639319,748.88351098174,-0.0095801660407194,0.087152051664717,655.75670513343
0.90515625000004,0.09508544172303,0,71.916024700036,0.39628012635699,15.067327160314,1.0854725090533,748.95576395914,-0.0095877206615484,0.087209839854604,655.82207568084
0.90578125000004,0.095154001751113,0,71.915695434478,0.39630248962395,15.067079343001,1.0855343547191,749.0279180109,-0.0095952767766593,0.087267624816742,655.88735985584
0.90640625000004,0.095222565786514,0,71.915366235319,0.39632485299243,15.066831556585,1.0855962009284,749.09997326424,-0.0096028353053701,0.087325406551397,655.95255777032
0.90703125000004,0.095291133829239,0,71.915037102537,0.39634721646209,15.066583801073,1.0856580476806,749.17192985134,-0.0096103903207521,0.087383185058837,656.01766953443
0.90765625000004,0.095359705879291,0,71.835967878628,0.39636958003277,15.066336076473,1.085719894975,749.24378789626,-0.0096179490547411,0.087440960339327,656.08269526232
0.90828125000004,0.095428281936675,0,71.83563887853,0.3963919437041,15.066088382792,1.0857817428107,749.31554752707,-0.0096255103455,0.087498732393136,656.14763506494
0.90890625000004,0.095496862001397,0,71.835309944739,0.39641430747602,15.065840720036,1.085843591187,749.38720887535,-0.0096330681319984,0.087556501220528,656.21248905165
0.90953125000004,0.09556544607346,0,71.834981077232,0.39643667134805,15.065593088214,1.0859054401033,749.45877206424,-0.0096406301742557,0.087614266821771,656.27725733674
0.91015625000004,0.09563403415287,0,71.755912118505,0.39645903532022,15.144085644812,1.0859672895587,749.5302372235,-0.009648192054492,0.087672029197132,656.34194002917
0.91078125000004,0.095702626239631,0,71.834323540978,0.39648139939208,15.143838074876,1.0860291395526,749.60160447942,-0.0096557559290831,0.087729788346877,656.40653724146
0.91140625000004,0.095771222333748,0,71.833994872184,0.39650376356352,15.143590535895,1.0860909900841,749.67287396149,-0.0096633176951699,0.087787544271272,656.47104908249
0.91203125000004,0.095839822435226,0,71.833666269584,0.39652612783421,15.143343027875,1.0861528411527,749.74404579396,-0.0096708821928179,0.087845296970584,656.53547566507
0.91265625000004,0.095908426544069,0,71.833337733152,0.39654849220397,15.143095550823,1.0862146927575,749.81512010335,-0.009678448485015,0.087903046445081,656.59981709863
0.91328125000004,0.095977034660283,0,71.833009262867,0.39657085667246,15.142848104746,1.0862765448978,749.88609701886,-0.0096860138502435,0.087960792695027,656.66407349358
0.91390625000004,0.096045646783872,0,71.832680858706,0.39659322123951,15.14260068965,1.0863383975729,749.95697666541,-0.0096935803556867,0.08801853572069,656.72824496068
0.91453125000004,0.096114262914841,0,71.832352520645,0.39661558590491,15.142353305544,1.0864002507821,750.02775916837,-0.0097011488386116,0.088076275522337,656.79233160973
0.91515625000004,0.096182883053195,0,71.832024248661,0.39663795066851,15.142105952434,1.0864621045246,750.09844465563,-0.0097087173653268,0.088134012100234,656.85633355086
0.91578125000004,0.096251507198938,0,71.910436200213,0.39666031552976,15.141858630326,1.0865239587997,750.16903325176,-0.0097162873841842,0.088191745454647,656.92025089388
0.91640625000004,0.096320135352077,0,71.910108060317,0.39668268048876,15.141611339227,1.0865858136067,750.23952508403,-0.0097238569854721,0.088249475585843,656.98408374796
0.91703125000004,0.096388767512614,0,71.909779986431,0.3967050455451,15.141364079144,1.0866476689448,750.30992027682,-0.0097314279521983,0.088307202494088,657.04783222348
0.91765625000004,0.096457403680557,0,71.909451978531,0.39672741069846,15.141116850085,1.0867095248134,750.38021895586,-0.0097389999189233,0.088364926179649,657.11149642935
0.91828125000004,0.096526043855908,0,71.830383879115,0.39674977594872,15.140869652055,1.0867713812117,750.45042124561,-0.0097465734225999,0.088422646642793,657.17507647488
0.91890625000004,0.096594688038674,0,71.830056003122,0.3967721412958,15.219362642542,1.086833238139,750.52052727399,-0.0097541461137582,0.088480363883785,657.2385724695
0.91953125000004,0.096663336228859,0,71.829728193046,0.3967945067393,15.219115506592,1.0868950955946,750.59053716274,-0.0097617209902976,0.088538077902894,657.30198452197
0.92015625000004,0.096731988426468,0,71.829400448867,0.39681687227875,15.218868401692,1.0869569535777,750.66045103859,-0.0097692961949019,0.088595788700383,657.36531274133
0.92078125000004,0.096800644631498,0,71.829072770415,0.39683923791443,15.218621327848,1.0870188120876,750.73026899721,-0.0097769036227642,0.088653496276583,657.42855723768
0.92140625000004,0.096869304843977,0,71.828745158092,0.3968616036456,15.297114442547,1.0870806711237,750.79999124574,-0.0097844487937232,0.08871120063158,657.49171811249
0.92203125000004,0.096937969063888,0,71.828417611467,0.3968839694724,15.296867430836,1.0871425306851,750.86961782823,-0.0097920272018811,0.088768901765814,657.55479548413
0.92265625000004,0.097006637291243,0,71.828090130648,0.39690633539435,15.296620450201,1.0872043907713,750.93914889506,-0.0097996055392948,0.088826599679495,657.61778945584
0.92328125000004,0.097075309526048,0,71.827762715613,0.39692870141128,15.37511365813,1.0872662513813,751.00858457071,-0.0098071842318188,0.088884294372889,657.68070013663
0.92390625000004,0.097143985768307,0,71.827435366339,0.39695106752304,15.453606897147,1.0873281125147,751.07792497674,-0.0098147656417255,0.088941985846264,657.74352763446
0.92453125000004,0.097212666018025,0,71.827108082804,0.39697343372926,15.45336000978,1.0873899741706,751.14717023851,-0.009822347611953,0.088999674099886,657.80627205691
0.92515625000004,0.097281350275207,0,71.826780864985,0.3969958000299,15.531853310996,1.0874518363483,751.21632047971,-0.009829930002589,0.089057359134021,657.86893351158
0.92578125000004,0.097350038539858,0,71.82645371286,0.39701816642461,15.531606485841,1.0875136990471,751.28537582374,-0.0098375124888133,0.089115040948935,657.93151210602
0.92640625000004,0.097418730811985,0,71.826126626407,0.39704053291299,15.5313596918,1.0875755622663,751.35433639338,-0.0098450955957105,0.089172719544895,657.99400794752
0.92703125000004,0.09748742709159,0,71.825799605603,0.39706289949522,15.531112928881,1.0876374260053,751.42320231242,-0.0098526791313772,0.089230394922167,658.05642114422
0.92765625000004,0.09755612737868,0,71.825472650426,0.39708526617058,15.53086619709,1.0876992902632,751.49197370137,-0.0098602651602979,0.089288067081018,658.11875180262
0.92828125000004,0.097624831673261,0,71.903885918334,0.39710763293914,15.530619496433,1.0877611550394,751.5606506843,-0.0098678522041227,0.089345736021713,658.18100002998
0.92890625000004,0.097693539975336,0,71.903559094345,0.39712999980065,15.530372826918,1.0878230203331,751.62923338504,-0.0098754386730501,0.08940340174452,658.24316593261
0.92953125000004,0.097762252284911,0,71.903232335915,0.39715236675492,15.530126188549,1.0878848861437,751.69772192348,-0.0098830279403979,0.089461064249703,658.30524961847
0.93015625000004,0.097830968601992,0,71.902905643024,0.3971747338014,15.529879581333,1.0879467524705,751.76611642341,-0.0098906170372345,0.089518723537531,658.36725119249
0.93078125000004,0.097899688926579,0,71.902579015522,0.39719710094032,15.529633005277,1.0880086193127,751.83441697957,-0.0098982390244985,0.089576379608322,658.42917076547
0.93140625000004,0.097968413258689,0,71.902252453754,0.39721946817104,15.529386460387,1.0880704866697,751.90262379328,-0.0099057983226747,0.089634032462187,658.49100843223
0.93203125000004,0.098037141598317,0,71.901925957345,0.39724183549349,15.529139946668,1.0881323545407,751.9707369095,-0.0099133899347255,0.089691682099542,658.55276431221
0.93265625000004,0.098105873945472,0,71.901599526386,0.39726420290758,15.528893464128,1.0881942229251,752.03875647506,-0.0099209804279813,0.089749328520607,658.6144385052
0.93328125000004,0.098174610300158,0,71.901273160854,0.39728657041295,15.528647012772,1.0882560918221,752.10668260982,-0.0099285736495926,0.089806971725646,658.67603111902
0.93390625000004,0.098243350662381,0,71.900946860728,0.39730893800933,15.528400592607,1.0883179612311,752.17451543492,-0.009936168144487,0.089864611714926,658.73754225797
0.93453125000004,0.098312095032145,0,71.900620625985,0.39733130569635,15.528154203638,1.0883798311513,752.24225507231,-0.0099437635385767,0.089922248488714,658.79897202843
0.93515625000004,0.098380843409457,0,71.900294456605,0.39735367347423,15.527907845872,1.088441701582,752.30990164399,-0.0099513585794377,0.089979882047276,658.86032053544
0.93578125000004,0.098449595794322,0,71.899968352563,0.39737604134236,15.527661519315,1.0885035725226,752.3774552684,-0.0099589560168184,0.090037512390877,658.92158788477
0.93640625000004,0.098518352186745,0,71.89964231384,0.39739840930074,15.527415223973,1.0885654439724,752.444916068,-0.0099665537467933,0.090095139519784,658.98277418137
0.93703125000004,0.098587112586732,0,71.899316340411,0.39742077734888,15.527168959851,1.0886273159306,752.51228416276,-0.0099741512378823,0.090152763434264,659.04387952973
0.93765625000004,0.098655876994287,0,71.977730589738,0.39744314548695,15.526922726956,1.0886891883966,752.57955967209,-0.009981751141875,0.090210384134581,659.10490403577
0.93828125000004,0.098724645409416,0,71.977404746837,0.39746551371408,15.526676525295,1.0887510613696,752.64674271802,-0.0099893507181405,0.090268001621003,659.16584780385
0.93890625000004,0.098793417832125,0,71.977078969165,0.39748788203073,15.526430354872,1.088812934849,752.71383341745,-0.0099969534806981,0.090325615893796,659.22671093888
0.93953125000004,0.098862194262418,0,71.976753256702,0.39751025043625,15.526184215693,1.0888748088341,752.78083189423,-0.010004554438928,0.090383226953225,659.28749354473
0.94015625000004,0.098930974700302,0,71.976427609425,0.39753261893057,15.525938107766,1.0889366833242,752.84773826502,-0.010012157131043,0.090440834799557,659.34819572606
0.94078125000004,0.098999759145782,0,71.976102027314,0.39755498751348,15.604432188575,1.0889985583186,752.91455265005,-0.010019760922205,0.090498439433059,659.40881758723
0.94140625000004,0.099068547598863,0,71.975776510345,0.3975773561846,15.604186143166,1.0890604338166,752.98127516968,-0.01002736463524,0.090556040853995,659.4693592321
0.94203125000004,0.099137340059551,0,71.975451058499,0.39759972494397,15.603940129026,1.0891223098175,753.0479059412,-0.01003497179864,0.090613639062632,659.52982076615
0.94265625000004,0.099206136527833,0,71.975125671624,0.39762209379101,15.60369414616,1.0891841863207,753.11444506401,-0.0100426099758,0.090671234059293,659.59020229893
0.94328125000004,0.099274937003756,0,71.974800349941,0.39764446272578,15.603448194574,1.0892460633254,753.18089269718,-0.010050217389789,0.090728825844138,659.6505039173
0.94390625000004,0.099343741487308,0,71.974475093444,0.39766683174796,15.603202274273,1.089307940831,753.2472489625,-0.010057791930322,0.090786414417422,659.71072572711
0.94453125000004,0.099412549978477,0,71.974149901868,0.39768920085734,15.602956385263,1.0893698188367,753.3135139354,-0.010065401602269,0.090843999779524,659.77086784911
0.94515625000004,0.099481362477282,0,71.973824775305,0.39771157005358,15.60271052755,1.0894316973419,753.37968775709,-0.010073009085556,0.090901581930657,659.83093037617
0.94578125000004,0.099550178983725,0,71.973499713735,0.39773393933654,15.60246470114,1.089493576346,753.44577054233,-0.010080620004889,0.090959160871088,659.89091341314
0.94640625000004,0.099618999497815,0,71.973174717133,0.39775630870616,15.602218906039,1.0895554558482,753.51176240917,-0.010088232942445,0.091016736601082,659.95081706157
0.94703125000004,0.099687824019555,0,71.972849785481,0.39777867816191,15.601973142252,1.0896173358478,753.57766347865,-0.010095844572466,0.091074309120906,660.01064142429
0.94765625000004,0.099756652548952,0,71.972524918756,0.39780104770384,15.601727409784,1.0896792163441,753.64347386533,-0.010103459123812,0.091131878430825,660.07038660498
0.94828125000004,0.099825485086011,0,71.972200116937,0.39782341733149,15.601481708642,1.0897410973366,753.70919368971,-0.010111072733735,0.091189444531106,660.13005270509
0.94890625000004,0.099894321630739,0,71.971875380002,0.39784578704493,15.601236038831,1.0898029788245,753.77482306836,-0.010118686379473,0.091247007422014,660.18963982761
0.94953125000004,0.099963162183141,0,71.971550707834,0.39786815684359,15.600990400356,1.0898648608071,753.84036209091,-0.010126334815086,0.091304567103856,660.24914807891
0.95015625000004,0.10003200674322,0,71.971226100691,0.39789052672758,15.600744793224,1.0899267432837,753.90581095215,-0.010133921503504,0.091362123576779,660.3085775499
0.95078125000004,0.10010085531098,0,71.970901558281,0.39791289669631,15.600499217439,1.0899886262537,753.97116969566,-0.010141538693188,0.091419676841165,660.36792835399
0.95140625000004,0.10016970788644,0,71.970577080671,0.39793526674989,15.600253673007,1.0900505097164,754.0364384617,-0.010149156515628,0.091477226897241,660.42720058923
0.95203125000004,0.10023856446959,0,71.970252667838,0.39795763688797,15.600008159934,1.0901123936711,754.10161736651,-0.010156775445121,0.091534773745275,660.48639435739
0.95265625000004,0.10030742506045,0,71.969928319761,0.39798000711033,15.599762678225,1.0901742781172,754.16670652682,-0.010164395686644,0.091592317385531,660.54550976042
0.95328125000004,0.10037628965901,0,71.96960403642,0.39800237741669,15.599517227885,1.090236163054,754.23170605829,-0.010172018187813,0.091649857818277,660.60454689976
0.95390625000004,0.10044515826528,0,71.969279817793,0.39802474780685,15.59927180892,1.0902980484807,754.29661607994,-0.010179638532693,0.091707395043777,660.66350587583
0.95453125000004,0.10051403087928,0,72.047695821339,0.3980471182807,15.677766578816,1.0903599343968,754.36143670462,-0.010187261886538,0.091764929062297,660.72238679148
0.95515625000004,0.100582907501,0,72.047371732075,0.39806948883797,15.756261380098,1.0904218208015,754.42616805004,-0.010194885174792,0.091822459874104,660.78118974643
0.95578125000004,0.10065178813045,0,72.047047707463,0.39809185947834,15.83475621277,1.0904837076942,754.49081023046,-0.01020251156287,0.091879987479463,660.83991484336
0.95640625000004,0.1007206727676,0,72.046723747373,0.39811423020162,15.834510919358,1.0905455950743,754.55536333063,-0.01021016605289,0.091937511878672,660.89856218254
0.95703125000004,0.10078956141256,0,72.125140009569,0.39813660100766,15.834265657349,1.090607482941,754.61982756221,-0.010217761683051,0.091995033071906,660.95713185934
0.95765625000004,0.10085845406524,0,72.124816178781,0.39815897189633,15.834020426746,1.0906693712936,754.68420294467,-0.010225390587098,0.092052551059516,661.01562398385
0.95828125000004,0.10092735072567,0,72.20323257004,0.39818134286714,15.833775227555,1.0907312601316,754.74848962664,-0.010233017819006,0.092110065841742,661.07403865139
0.95890625000004,0.10099625139387,0,72.202908868362,0.39820371391997,15.833530059781,1.0907931494543,754.81268772045,-0.010240646714144,0.092167577418849,661.13237596253
0.95953125000004,0.10106515606983,0,72.202585231209,0.39822608505489,15.83328492343,1.0908550392609,754.87679734221,-0.010248277260058,0.092225085791103,661.19063601879
0.96015625000004,0.10113406475353,0,72.202261658384,0.39824845627129,15.833039818508,1.0909169295509,754.94081858384,-0.010255940784984,0.092282590958849,661.24881892841
0.96078125000004,0.10120297744506,0,72.201938150374,0.39827082756918,15.832794745018,1.0909788203235,755.00475162605,-0.010263539586225,0.092340092922122,661.30692476136
0.96140625000004,0.10127189414436,0,72.201614706668,0.39829319894813,15.832549702966,1.0910407115781,755.06859651968,-0.010271171498328,0.09239759168141,661.36495364964
0.96203125000004,0.10134081485144,0,72.201291327401,0.39831557040816,15.911044849838,1.091102603314,755.13235339921,-0.010278804640717,0.092455087236909,661.42290568188
0.96265625000004,0.10140973956632,0,72.200968012555,0.39833794194889,15.910799870677,1.0911644955306,755.19602237841,-0.010286438800638,0.092512579588884,661.48078095729
0.96328125000004,0.10147866828901,0,72.279384919498,0.39836031357019,15.91055492297,1.0912263882273,755.25960354366,-0.010294108873219,0.092570068737639,661.53857957987
0.96390625000004,0.10154760101949,0,72.279061733505,0.39838268527176,15.910310006722,1.0912882814033,755.32309708896,-0.010301711981298,0.092627554683327,661.59630163445
0.96453125000004,0.10161653775779,0,72.278738611791,0.39840505705355,15.910065121937,1.0913501750579,755.38650305192,-0.010309348152494,0.092685037426322,661.65394723552
0.96515625000004,0.10168547850392,0,72.278415554413,0.39842742891521,15.909820268621,1.0914120691907,755.44982156822,-0.010316987794008,0.092742516966856,661.71151647754
0.96578125000004,0.10175442325787,0,72.356832718829,0.39844980085646,15.909575446778,1.0914739638008,755.51305275333,-0.01032462728127,0.092799993305194,661.76900945818
0.96640625000004,0.10182337201965,0,72.35650979006,0.3984721728772,15.909330656414,1.0915358588876,755.57619672154,-0.010332265726329,0.092857466441602,661.82642627611
0.96703125000004,0.10189232478927,0,72.356186925565,0.3984945449772,15.909085897533,1.0915977544505,755.63925358385,-0.010339906313331,0.092914936376345,661.88376703105
0.96765625000004,0.10196128156673,0,72.355864125323,0.39851691715621,15.908841170141,1.0916596504888,755.70222345457,-0.010347546858033,0.092972403109689,661.94103182087
0.96828125000004,0.10203024235204,0,72.355541389313,0.39853928941425,15.908596474242,1.0917215470019,755.76510644395,-0.010355190769931,0.093029866641899,661.99822074443
0.96890625000004,0.10209920714522,0,72.355218717514,0.39856166175042,15.908351809841,1.0917834439891,755.82790266746,-0.010362834402257,0.093087326973241,662.05533389963
0.96953125000004,0.10216817594625,0,72.354896109906,0.39858403416531,15.908107176944,1.0918453414498,755.89061223619,-0.010370479047617,0.093144784103981,662.11237138431
0.97015625000004,0.10223714875515,0,72.35457356647,0.39860640665822,15.907862575554,1.0919072393833,755.95323526344,-0.010378123896299,0.093202238034385,662.16933329661
0.97078125000004,0.10230612557193,0,72.354251087182,0.3986287792292,15.907618005678,1.0919691377889,756.01577186177,-0.010385768678371,0.093259688764717,662.22621973439
0.97140625000004,0.10237510639659,0,72.353928672024,0.3986511518779,15.907373467319,1.0920310366661,756.07822214123,-0.010393415955966,0.093317136295243,662.2830307959
0.97203125000004,0.10244409122913,0,72.353606320975,0.39867352460411,15.907128960482,1.0920929360141,756.14058621428,-0.010401064976191,0.093374580626229,662.33976657853
0.97265625000004,0.10251308006958,0,72.353284034014,0.39869589740753,15.906884485172,1.0921548358324,756.20286419472,-0.010408712612395,0.093432021757941,662.39642717892
0.97328125000004,0.10258207291787,0,72.352961811041,0.39871827028817,15.906640041395,1.0922167361202,756.26505616852,-0.010416392218259,0.093489459690668,662.45301270485
0.97390625000004,0.10265106977416,0,72.352639652263,0.39874064324563,15.906395629154,1.0922786368769,756.32716231561,-0.010424014019461,0.093546894424606,662.50952322398
0.97453125000004,0.10272007063831,0,72.352317557358,0.39876301627967,15.906151248455,1.0923405381019,756.38918266289,-0.010431696077715,0.093604325960125,662.56595887184
0.97515625000004,0.1027890755104,0,72.351995526623,0.39878538939019,15.905906899302,1.0924024397946,756.45111740081,-0.01043931654401,0.093661754297357,662.62231970967
0.97578125000004,0.1028580843904,0,72.351673559797,0.39880776257704,16.063142896659,1.0924643419542,756.51296658316,-0.010446968611423,0.093719179436677,662.67860586069
0.97640625000004,0.10292709727834,0,72.351351656937,0.39883013583993,16.062898610612,1.0925262445802,756.57473033806,-0.010454623403809,0.093776601378315,662.7348174129
0.97703125000004,0.10299611417421,0,72.351029818022,0.39885250917851,16.062654356124,1.0925881476719,756.63640877544,-0.010462281288084,0.093834020122537,662.7909544629
0.97765625000004,0.10306513507803,0,72.350708043032,0.39887488259283,16.062410133201,1.0926500512286,756.69800200975,-0.0104699356432,0.093891435669608,662.84701710454
0.97828125000004,0.1031341599898,0,72.350386331946,0.39889725608245,16.062165941847,1.0927119552498,756.75951014881,-0.010477592742609,0.093948848019793,662.90300543745
0.97890625000004,0.10320318890952,0,72.350064684745,0.39891962964735,16.061921782067,1.0927738597348,756.82093330321,-0.010485250365879,0.094006257173359,662.95891955594
0.97953125000004,0.10327222183721,0,72.349743101408,0.39894200328717,16.061677653865,1.0928357646829,756.88227158291,-0.010492909419447,0.094063663130569,663.01475955686
0.98015625000004,0.10334125877287,0,72.349421581916,0.39896437700186,16.061433557246,1.0928976700935,756.94352510033,-0.010500566773487,0.094121065891689,663.07052553545
0.98078125000004,0.1034102997165,0,72.349100126246,0.39898675079087,16.061189492214,1.092959575966,757.00469396049,-0.010508228626901,0.094178465456986,663.12621758872
0.98140625000004,0.10347934466812,0,72.348778734381,0.39900912465448,16.139685616254,1.0930214822998,757.06577827783,-0.01051588927462,0.094235861826724,663.18183581161
0.98203125000004,0.10354839362773,0,72.348457406299,0.39903149859205,16.13944161441,1.0930833890941,757.12677815918,-0.010523552305511,0.094293255001168,663.2373803002
0.98265625000004,0.10361744659533,0,72.348136141979,0.39905387260349,16.139197644167,1.0931452963484,757.18769371533,-0.010531215132462,0.094350644980585,663.29285114897
0.98328125000004,0.10368650357094,0,72.347814941403,0.39907624668866,16.138953705529,1.0932072040621,757.24852505452,-0.010538880013294,0.094408031765238,663.34824845452
0.98390625000004,0.10375556455455,0,72.34749380455,0.39909862084751,16.1387097985,1.0932691122344,757.30927228655,-0.010546545159568,0.094465415355394,663.40357231056
0.98453125000004,0.10382462954618,0,72.347172731401,0.3991209950794,16.138465923085,1.0933310208648,757.36993552254,-0.010554208772937,0.094522795751317,663.45882281307
0.98515625000004,0.10389369854584,0,72.346851721934,0.39914336938459,16.138222079289,1.0933929299527,757.43051486679,-0.010561876779276,0.094580172953273,663.5140000575
0.98578125000004,0.10396277155352,0,72.34653077613,0.3991657437626,16.137978267115,1.0934548394974,757.49101043055,-0.010569544839276,0.094637546961528,663.56910413757
0.98640625000004,0.10403184856923,0,72.346209893969,0.39918811821315,16.137734486567,1.0935167494982,757.55142232254,-0.01057721346536,0.094694917776347,663.62413514835
0.98703125000004,0.10410092959299,0,72.424629232911,0.39921049273633,16.137490737651,1.0935786599546,757.61175065195,-0.010584882656662,0.094752285397993,663.67909318518
0.98765625000004,0.1041700146248,0,72.424308477975,0.39923286733165,16.137247020371,1.0936405708659,757.67199552372,-0.01059255479264,0.094809649826734,663.73397834142
0.98828125000004,0.10423910366466,0,72.423987786623,0.39925524199904,16.13700333473,1.0937024822315,757.73215705105,-0.010600225225357,0.094867011062834,663.78879071202
0.98890625000004,0.10430819671258,0,72.423667158833,0.39927761673829,16.136759680733,1.0937643940508,757.79223533805,-0.01060789660258,0.094924369106558,663.84353038996
0.98953125000004,0.10437729376857,0,72.423346594588,0.39929999154905,16.136516058384,1.0938263063231,757.85223049259,-0.010615571622342,0.094981723958172,663.89819747165
0.99015625000004,0.10444639483264,0,72.423026093865,0.39932236643136,16.136272467687,1.0938882190478,757.91214262543,-0.010623244295304,0.09503907561794,663.9527920485
0.99078125000004,0.10451549990479,0,72.422705656646,0.39934474138493,16.136028908648,1.0939501322243,757.97197184187,-0.010630919109455,0.095096424086128,664.00731421619
0.99140625000004,0.10458460898505,0,72.422385282898,0.39936711640927,16.135785381269,1.094012045852,758.03171823083,-0.010638627128547,0.095153769363012,664.06176407708
0.99203125000004,0.10465372207336,0,72.422064972637,0.39938949150462,16.135541885554,1.0940739599302,758.09138195564,-0.010646271200271,0.095211111448825,664.11614169593
0.99265625000004,0.1047228391698,0,72.42174472581,0.39941186667045,16.135298421509,1.0941358744584,758.15096306698,-0.010653950591977,0.095268450343862,664.17044719637
0.99328125000004,0.10479196027434,0,72.421424542406,0.39943424190675,16.135054989136,1.0941977894358,758.21046169283,-0.010661628180538,0.09532578604838,664.22468066013
0.99390625000004,0.104861085387,0,72.421104422408,0.39945661721327,16.134811588441,1.094259704862,758.26987793677,-0.010669308991025,0.095383118562644,664.27884218189
0.99453125000004,0.10493021450778,0,72.420784365794,0.39947899258967,16.134568219427,1.0943216207362,758.32921190804,-0.010676990091569,0.095440447886917,664.33293185426
0.99515625000004,0.10499934763669,0,72.420464372545,0.39950136803585,16.134324882099,1.0943835370578,758.38846371333,-0.010684669535242,0.095497774021467,664.38694976865
0.99578125000004,0.10506848477374,0,72.420144442642,0.39952374355164,16.134081576459,1.0944454538263,758.4476334565,-0.010692352804824,0.095555096966556,664.44089602043
0.99640625000004,0.10513762591891,0,72.419824576008,0.39954611913666,16.133838302513,1.094507371041,758.50672119358,-0.010700098950089,0.095612416722462,664.49477071246
0.99703125000004,0.10520677107227,0,72.419504772785,0.39956849479113,16.133595060264,1.0945692887013,758.56572718591,-0.010707718936261,0.095669733289419,664.54857390064
0.99765625000004,0.10527592023377,0,72.4191850328,0.39959087051427,16.133351849717,1.0946312068065,758.62465138628,-0.01071540364443,0.09572704666772,664.60230571701
0.99828125000004,0.10534507340343,0,72.418865356083,0.39961324630618,16.133108670874,1.0946931253561,758.68349394929,-0.010723091722896,0.095784356857622,664.65596624073
0.99890625000004,0.10541423058126,0,72.418545742613,0.39963562216678,16.132865523741,1.0947550443495,758.74225498418,-0.010730777908322,0.095841663859389,664.70955556248
0.99945312500002,0.10547474639566,0,72.418266133634,0.39965519935471,16.13265281607,1.0948092185721,758.79432070849,-0.01073750378804,0.095891804861024,664.7570056581
1,0.10553526527926,0,72.417986572878,0.39967477683302,16.132440130716,1.0948633936087,758.84625937638,-0.010744249766262,0.095941943423144,664.80434561201
